 C  H 
 1.0000000000000000
    10.5835442180599983    0.0000000000000000    0.0000000000000000
     0.0000000000000000   10.5835442180599983    0.0000000000000000
     0.0000000000000000    0.0000000000000000   10.5835442180599983
 C   H  
   6   6
Cartesian
  5.2576369999999999  6.6526428500000003  5.3027001499999997
  4.0567021299999997  5.9664100800000002  5.2909450099999997
  4.0554072400000001  4.5547700700000000  5.2973649800000002
  5.2904719199999999  3.8938923000000001  5.2847991399999996
  6.5316221399999996  4.6255803300000000  5.3076040300000003
  6.5196251700000003  6.0193711900000002  5.2791110200000002
  5.2904682200000002  7.7625449599999996  5.2393369999999999
  3.1304620900000000  6.4771200699999998  5.4101220600000000
  3.0764293999999999  4.2062682499999999  5.1638032999999997
  5.3305253400000003  2.7957035299999999  5.3513622300000003
  7.5050330399999998  4.0573101600000001  5.2981349399999997
  7.4568821500000002  6.4896520400000002  5.2759809300000002
