Mo  S 
 1.0000000000000000
     9.5642410000000009    0.0000000000000000    0.0000000000000000
    -4.7821199999999999    8.2828759999999999    0.0000000000000000
    -0.0000000000000000    0.0000000000000000   18.1582730000000012
 Mo  S  
   9  18
Cartesian
  0.2232675072443600  0.1458444664642000  9.0987577850556089
  1.3473192002059400  2.8324964309801604  9.0309006820200715
  6.0235857712198904  0.1581215937576800  9.0811028593831704
  3.2428184428776903 -0.3032932422044000  9.0395634493201804
  0.2686907155379104  5.6517489573801196  9.0171644932437598
  5.0669484132413203  2.9421510243101201  9.1682752805742709
 -1.5891533934740600  2.4421112324985601  9.0795973569687405
  3.2846778784387802  5.3173747199582806  8.9889772244831310
 -3.4345173110199299  5.6473896797413197  8.9876629286833900
  4.5683156843703303  1.0249452743476799 10.6812681641995013
  1.5250327801179901  1.0410394822170002 10.7447611079022192
 -0.0859799340214198  1.7537485759718401  7.3812526306169008
  0.0327195867004198  3.6874868636015203 10.6207130474854505
 -1.5555322338737099  4.5406054490756400  7.8525622276266205
 -1.5717441781436796  6.4244942414444397 10.6587192207881003
 -3.2595287036333196  7.4090197435421992  7.4324398942902503
  3.2698304321707208  1.9136611760069999  7.8381939493671808
 -0.0451516227816894  7.3164504870237197  7.3725571784253905
  3.2589190777826609  3.6629913346054002 10.6637792051422817
  1.6648412700785400  6.4724650147710001 10.6219933873146815
  1.7122508063846003  4.4944527670310803  7.3732887752445606
  7.9020905916829713  0.8291918415729199 10.7057041153410601
  6.2835832629059709  1.8773975024476000  7.5218799206135900
  6.5025840751261796  3.7489091103808398 10.7336028491437201
  4.8163438758174006  4.5377365921442800  7.4367415891639501
  4.6704368536359402  6.4085140059488799 10.6227338816876209
  3.0889568137890904  7.4467060010546007  7.8211727474224411
