Al 
 1.0000000000000000
     8.0780951000000005    0.0000000000000000    0.0000000000000000
     0.0000000000000000    8.0780951000000005    0.0000000000000000
     0.0000000000000000    0.0000000000000000    8.0780951000000005
 Al 
  32
Cartesian
  7.9931051383290965  0.1269054199638820  8.0067951668760173
  4.1177744837589234  6.2007639744739755  6.1460471588760281
  3.9544475179795731  3.9340120376812990  4.0059704971178336
  6.1932499727548080  5.9864332895093924  8.0559352695216813
  6.1384175596159798  4.0897291147526449  1.9805846100656661
  3.9679132178255672  6.0579274200395794  1.9992505836322851
  4.0354603103089435  4.0813106895060827  8.0595775210403691
  6.1451526714056044  1.9065773033689182  4.0901242143839864
  6.1378695416443954  0.0443844472793420  5.9422343960744977
  3.9895860199503086  2.0532217102715520  6.0342849359866051
  4.0117548171141895  0.0599814717365200  3.9021432254832402
  6.0874547155919529  2.1061950306040673  8.0101174450477934
  6.0511659736599288  7.9813446435777617  1.8644878429074863
  4.1115366595036535  2.0656377424402521  2.0486581520067091
  4.1173164557667530  7.9788968999815104  0.0647291297886920
  2.1450400049495353  6.0588604400236292  3.9919345645387310
  2.0325054353876024  4.0702054898292594  5.8909567486844230
  0.0464811168625470  5.9099285589315285  6.1088894562540963
  8.0142219251681048  4.0690974983053438  3.9814657571938863
  1.9008380591432212  6.1526344415253220  0.0511413699257370
  2.0495232352109682  3.9611386849318539  1.9869890854228480
  8.0096233887514785  6.0727207548152586  2.0590565183622820
  0.0824018207818150  3.8739202191657132  8.0372574211552656
  1.9554670658474322  1.9123945012123302  4.0861513264328551
  2.0355871478873011  8.0677285613391216  6.0848672209504713
  0.0282978902591040  2.0546180090095869  6.0542274101409266
  0.0285590550736870  8.0352423403325695  4.0705625416326789
  2.0364807467672632  1.9089261710811452  8.0215951256896787
  2.0388876152023081  8.0570273471982503  2.0438533818221800
  7.9562249990548022  2.0531259848446171  2.0426898130039759
  5.8229672997133717  4.0786832890748075  6.0795313967940681
  5.9384052982161464  6.0544718532986526  3.8717428494124588
