Al 
 1.0000000000000000
     8.0780951000000005    0.0000000000000000    0.0000000000000000
     0.0000000000000000    8.0780951000000005    0.0000000000000000
     0.0000000000000000    0.0000000000000000    8.0780951000000005
 Al 
  32
Cartesian
  0.0891540581330520  8.0724140180590229  7.9430934900030943
  3.9555382223799755  6.2197967743390858  6.1558356290515501
  4.0857082429166205  3.9277468286836412  4.0444266727461384
  6.1627196201338688  5.9767849742838548  8.0002256560359424
  5.9916766194769009  4.0020311332613687  1.8858106211715442
  4.0712180790500447  6.0783113620911156  1.9243492741508201
  3.8948092845038524  4.0027885354579444  7.9541121732813966
  6.2129311205326445  1.9591224038801822  3.9566315117708095
  6.1715879144965502  8.0136966874247033  6.1140983735364784
  3.9814498433465393  1.8836315550183191  6.0562512153063297
  4.1321440416656561  0.0229034191322750  3.9959020401661451
  6.0747530419805162  2.1360813974836352  8.0493269838251251
  6.1185778388313308  8.0162604324665896  1.9640745993002862
  3.9681902157065463  2.2017552604942718  2.0153982110514792
  4.1550077973509900  0.0891147178099150  0.0677181057566430
  2.2026115385748724  6.0123229380572845  3.9675212686513150
  2.2222798421814991  4.1449703602844856  6.0764869243127810
  8.0613232781724289  6.0887331549224788  6.1222207365976269
  8.0370843883582221  4.1496425689284235  4.0285965144643754
  1.9617856710537012  6.1117112964344287  0.0666872600409320
  1.7847167345759372  3.9972421961432349  2.0938337679201449
  8.0247811263971176  6.0695711055357684  1.8951310465169731
  7.9981290672336884  4.0056303285331731  8.0411200431082808
  1.8206279871239381  2.0362829142182641  4.0123955716175210
  1.9649681981802480  0.0157231235216890  5.9764548225371179
  0.0367121148962150  2.1366014652461733  6.0746409180205285
  8.0077445046121696  7.7789204245429708  4.0276905560989098
  2.0438016012325892  1.9350976643670761  8.0199530105177512
  2.0386932562342022  8.0511766252601724  1.9731013051078792
  0.0099669152962820  1.9328019505206071  2.0099023598311452
  6.0553546275311803  3.9931869116220842  5.9983299809441135
  5.9157656288888862  6.0019908928624819  4.1625315735652277
