Al 
 1.0000000000000000
     8.0780951000000005    0.0000000000000000    0.0000000000000000
     0.0000000000000000    8.0780951000000005    0.0000000000000000
     0.0000000000000000    0.0000000000000000    8.0780951000000005
 Al 
  32
Cartesian
  0.0230567413772730  0.0438845747545540  0.0215055855561710
  4.0978734502324654  6.1922477234957514  5.9966602386869434
  3.9284218343101975  4.0474688833607990  4.0217241558390011
  6.0826885587020012  6.0788784443671355  8.0720369325797563
  6.0377141681375059  4.0184978454370119  1.9728589622548791
  4.1058265772012676  5.9892564221849396  1.8073638357506892
  4.0036581423954587  4.1895634647602602  7.8390031955920447
  5.9602252832336093  2.0828659766409729  3.9949336381255574
  6.0761851266798441  7.9723101020179215  6.1454819345618796
  4.0309381118910119  1.8221669450214391  6.0274511906558095
  4.1441888853645112  7.9526423638779518  3.9112570131560114
  6.0407300441621405  1.9827399266192971  0.0435452947603540
  6.1896428609498058  0.0254528659458350  2.0264404823674731
  3.8750172244802932  2.0923483677931571  1.9944305458480172
  4.1168874281359926  8.0440768682577328  8.0507465474770488
  2.0624245993332764  6.0695623811930606  3.9526513535340881
  2.0364858359671762  4.0563005839526785  6.0717793336123043
  0.0299652090877440  6.0145592779047687  6.2272670735637616
  0.0114623322611940  4.1278982756620479  4.1334365368816561
  2.0122313554294262  6.0716781150807018  0.0786483338936000
  1.7649813019990290  4.1354668045231389  2.0338804079545731
  7.9652901565950698  6.0928371503570817  2.0121891877730040
  0.0861238030991400  3.9086734767811291  8.0511524717558238
  1.9779840289101231  2.0127907635151012  4.0275415152443150
  1.8881981829593002  8.0260374317470706  6.0979261079272300
  0.0164542719091900  1.9805337988474871  6.0207962943505278
  0.0634682199245330  7.9632345237349735  3.9523448706059940
  2.1578548526733221  2.0125616687380652  8.0360199377668948
  2.0713986359608172  0.0768396484007100  1.9493105072288692
  8.0388173013190745  2.0158388711391839  2.0464016169214752
  6.1513023636433317  4.0097356972439444  6.0200628840963990
  5.9700301519421854  5.9550959351879627  3.9589090499033031
