Al 
 1.0000000000000000
     8.0780951000000005    0.0000000000000000    0.0000000000000000
     0.0000000000000000    8.0780951000000005    0.0000000000000000
     0.0000000000000000    0.0000000000000000    8.0780951000000005
 Al 
  32
Cartesian
  0.0394759543537290  0.0185002110551670  0.0203497717092630
  4.0348277146816622  6.0658486385327377  6.1180600329354204
  3.9156893023754793  4.2914188733809437  4.0402015058850358
  6.1131933845424253  5.9591387794426591  8.0165812944039612
  6.0869680911431283  4.1997780544523087  2.1164912898375761
  4.0795247034604234  6.1674442556150053  1.9545419623965801
  4.1556075151312140  4.0349051028327203  8.0229499030188993
  5.8317540860964945  1.9068757082019121  3.9132022992370423
  6.0412191728204458  7.9759928247930612  6.1209927045805248
  4.0719594058373714  1.9785942482139771  6.0672627898609433
  4.0429799666946806  7.8771914208058824  4.0649779929281475
  6.1405829737884856  1.9691045867762031  7.9121589902843015
  6.0556719351067079  8.0641675754571391  2.0387678978329262
  4.0270250826245721  1.9885299012822220  1.9496871888033822
  4.0541724097985830  8.0150973483340913  0.0556375568774460
  1.9253944988758092  6.1341074919753744  3.9941583025578589
  2.0397048760835750  4.1696547570434568  6.0135959650640940
  0.0507300333232450  6.0241259235888460  6.1411427857789151
  0.1329580134985080  3.9477743651793649  3.9815238386976550
  1.9880155689672052  5.9632099778111574  8.0429893143144202
  2.0937933774446451  3.9759706330021114  1.9981448539749971
  8.0015582186036394  5.9894433493055539  1.9552036391662211
  8.0179872868561173  4.0166915025917014  0.0071788415534680
  2.1625592929167095  2.0641334395707300  4.1160440750075526
  1.9681315802214081  0.0167970254842830  5.9418018948628433
  8.0071959211739294  2.0138397041638361  6.1099500293597746
  8.0678179050709282  0.2684832456197960  3.9817836302360710
  1.9344250013880993  2.0189518458669200  7.8214557150729718
  1.9588937937888520  7.8360663233374890  1.9438395365414431
  0.0478676411055110  2.0579190417912510  2.0714572021502922
  5.9374012717761673  4.0086832022333656  6.0129180513233011
  6.1486310991556650  6.0456059823645010  4.0507063415340259
