Al 
 1.0000000000000000
     8.0780951000000005    0.0000000000000000    0.0000000000000000
     0.0000000000000000    8.0780951000000005    0.0000000000000000
     0.0000000000000000    0.0000000000000000    8.0780951000000005
 Al 
  32
Cartesian
  8.0376384649011321  0.1507972748125930  0.0663756879129250
  4.1832171516877983  6.1027146411406070  6.0836993707418650
  4.0444042964227123  4.0604919035953131  3.9933495236764474
  6.2888493814062487  6.0454725322334477  8.0213499555033927
  6.0064017751299348  3.8879939572298845  1.8792709992833392
  4.1449413599230764  5.9665011553167995  1.9648093828305822
  4.0406186587159993  4.2070983434509772  8.0558857507987174
  6.0149135831558542  2.0855159149575773  4.0252567876071828
  6.0588516348999706  0.1640199855579790  5.8828618511466155
  3.8291139337602491  2.0056161225710851  6.1798001867561609
  3.9564787549924683  0.0608605300453020  4.0193500844700623
  5.8383234353746669  2.0897662046944423  8.0347724375406031
  6.0897863769616167  0.1087764781595110  1.9980431507576881
  4.0472650730214266  2.1351438537663294  1.9996353433018981
  4.1079112912037248  7.9964809742713863  0.0679006707059030
  2.1454584502757150  6.0442075025407886  4.1150100788347519
  1.9505536452838081  3.8957486861830311  6.0093743525648335
  8.0100630794677716  6.0861932402611361  6.0461524654980154
  0.0015062416123460  4.1932772074205831  4.0512680114863295
  1.8675257721317433  5.9956210725332788  8.0253246206354465
  2.0647797679596813  4.1326234766098411  2.0958388319049162
  0.0463782827119240  5.9851812655498433  1.9136680936857959
  8.0397463630365262  3.9186624452770342  7.9901273101323840
  1.9325156628302633  1.9495696525196771  3.8251691575800661
  2.0443391984614943  7.8894185871111446  6.2171389194892832
  0.0044035312009120  1.9320324311813810  5.9326153235532217
  8.0387777994340350  7.8909539906468016  3.9665724963818203
  2.0075103550910844  1.8487681121857391  0.0961751344892170
  2.1363017679179634  8.0157564401133001  2.0685708179901110
  8.0142859844622478  1.9982228075927120  2.1261995445287560
  6.1210669422744939  4.1283138936549424  6.0198423521001683
  6.1378841629965262  6.0141495569212964  3.8243484231179061
