Mo  S 
 1.0000000000000000
     9.5521989999999999    0.0000000000000000    0.0000000000000000
    -4.7760999999999996    8.2724469999999997    0.0000000000000000
     0.0000000000000000    0.0000000000000000   18.1271130000000014
 Mo  S  
   9  18
Cartesian
  0.0367519907975100 -0.0110354442980000  9.0747545240557503
  1.5539659915610602  2.7394941179304197  9.0570392590631101
  6.3000435743324505 -0.0171903103149400  9.1182760909285800
  3.1970528025698299  0.0004849308431400  9.0792351838470911
 -0.0173551505273003  5.5143493069091605  9.0467640863301906
  4.8140687493169700  2.7890735399844599  9.1526831641138795
 -1.5988415041532700  2.7605597387669802  9.0614423348108097
  3.2028032257274699  5.5424838164316892  9.0095400597846904
 -3.2026956669982996  5.5043020064053101  9.0032590151301903
  4.8050703585515304  0.8860876909291100 10.6419456798230705
  1.6322655264051702  0.8884494745476099 10.6359782342234706
  1.5822130506722498  0.9499106122277500  7.4989011460702502
 -0.0389780192946101  3.6980173401788101 10.5947789317970713
  0.0078080313230898  3.6846385598191200  7.4293736978031006
 -1.6354675285155198  6.3802604168807999 10.5573020320252198
 -1.5910807057315497  6.4001517638657095  7.4507925132527708
  4.8392402410767605  0.9676969523490400  7.5890186381807103
  1.6092460139773497  6.4593080323627099  7.4574707229531008
  3.1439719148360497  3.7288715821015299 10.6451547226374625
  1.5892898999353200  6.3636486815090398 10.6279673191753794
  3.1815677517516008  3.6374547556918100  7.5649958629485905
  8.0335059548804093  0.9003967079539500 10.6464225329206812
  7.8736043414549304  0.8866851270514500  7.5471848867993110
  6.4459875289090105  3.7104379230024898 10.6463797529340010
  6.3625090467939103  3.7126928266057502  7.5547081825077003
  4.7922023518836916  6.4272527965845301 10.5413496287718313
  4.8074010912016503  6.4821142587725396  7.4215861087871700
