Al 
 1.0000000000000000
     8.0780951000000005    0.0000000000000000    0.0000000000000000
     0.0000000000000000    8.0780951000000005    0.0000000000000000
     0.0000000000000000    0.0000000000000000    8.0780951000000005
 Al 
  32
Cartesian
  0.0259948253460940  7.9687879717733701  0.0038641567910850
  0.0158249883009000  2.0471764678034670  1.9161510577766832
  1.9879787328535492  7.9652333675865181  2.1255665449967203
  1.8997513130094181  1.9432973347983311  8.0315916875949771
  8.0436742559979493  8.0202361477510049  3.9880622488715951
  8.0156316335440057  1.8477340352319882  6.0506353235928092
  2.0667150372027883  8.0751934482400802  6.0092974490994813
  2.0733444067275539  1.9904462677827950  3.9408147631269110
  8.0759228194466601  4.1188127613221264  0.0084601889982300
  0.0195304913042210  5.9996405710931366  1.9121322054644332
  2.0395531694575970  3.9963638648630120  1.9666662945512192
  2.1365292470759791  5.9788762315433424  8.0221989632984041
  0.1353177058581690  4.0695972092682293  4.0988932289578894
  8.0462817035343264  6.1590129861972329  6.1108105888307787
  2.0740875106958030  4.2141728160157532  6.0234510795241913
  2.0017736150748680  6.1172834856534575  3.9816165752294030
  3.8871013277213340  0.2191341626538960  0.0209085335473300
  4.0473977961239189  2.0299265843078782  1.9739544327313900
  6.0998848036461268  0.0731284907308190  2.0617265711356851
  6.1675053260139610  2.0813417208765541  8.0437270059589530
  4.0645329706690880  8.0745394456607844  4.0328052827924266
  3.9615388737631081  1.9615527795719681  5.9546724814428202
  5.9933413533151088  7.9466039877907013  6.0408374828269702
  6.0772150838050942  2.2091972863860980  4.1220062746580099
  3.9104268273225840  3.7893606584017374  8.0379002759633220
  4.0830247805053519  6.1241530977264977  1.8442613429294492
  6.0649813742428016  4.0724628327240033  2.0303275001676910
  5.9114003878587482  6.0192511163197997  7.9929719305408975
  4.0529300795531542  4.1100581257575008  3.9361021640074734
  4.0144676837916222  6.0372651068308976  6.0647909735412942
  6.0086760012434386  3.9330329725551794  6.0590291106493170
  6.1713811960429412  5.9492673472304594  4.1895234781895150
