Mo  S 
 1.0000000000000000
     9.5521989999999999    0.0000000000000000    0.0000000000000000
    -4.7760999999999996    8.2724469999999997    0.0000000000000000
     0.0000000000000000    0.0000000000000000   18.1271130000000014
 Mo  S  
   9  18
Cartesian
 -0.0352498108566800 -0.0075955953864600  9.0476015589507899
  1.6060065136300501  2.7620943604099502  9.0296896147821002
  6.3852233967015204  0.0121542100302800  9.0396526386291605
  3.2031103777863796 -0.0071208396531300  9.1264311165250209
  0.0141565035206798  5.5095699833793805  9.0679708145577624
  4.8083200444912899  2.7960803025934600  9.0653291503802702
 -1.5452905878601497  2.7745855899310099  9.0901397299433704
  3.1405987840839908  5.4826663312459800  9.0820950984651017
 -3.1903135336592197  5.5065630316193497  9.0310235890277717
  4.7887351406003811  0.9264779134066099 10.6614691243374597
  1.5560525898927098  0.8946709337629000 10.5908553181882201
  1.6161714992053100  0.9664538517383500  7.5347103514461011
  0.0623979362459603  3.7657618977022698 10.6798694129303708
  0.0497010177666801  3.6381262302147999  7.4956861213085713
 -1.6832395590794598  6.4261575246017291 10.5195256723466120
 -1.6338547839013098  6.3952162565365702  7.5031336456846205
  4.8015278282350993  0.9157905736783699  7.5347214089850301
  1.5993534219591206  6.4660395706600191  7.4554446555330909
  3.1733208615227904  3.6245854753428497 10.6346643810732306
  1.5824132703725902  6.3885095355802592 10.6001023210717804
  3.1838155783388502  3.5858583456102298  7.5142301579075710
  7.9434781001576598  0.9503884287664699 10.6038832743013209
  7.9398074296285293  0.9381188181005400  7.4874486173479804
  6.3529760973787912  3.6811930856436197 10.6450938155377823
  6.4258172010638903  3.7097547843292298  7.5146137276186504
  4.6751856681822304  6.4468534497818597 10.6221526851383707
  4.7052062250137903  6.4247436806849594  7.5227013203547308
