 C  H 
 1.0000000000000000
    10.5835442180599983    0.0000000000000000    0.0000000000000000
     0.0000000000000000   10.5835442180599983    0.0000000000000000
     0.0000000000000000    0.0000000000000000   10.5835442180599983
 C   H  
   6   6
Cartesian
  5.2973919699999996  6.7351749200000004  5.2525299099999998
  4.1093960100000002  6.0063629599999997  5.3366500400000003
  4.1171892000000003  4.6324501099999997  5.3388810500000004
  5.2869999900000000  3.8671392099999999  5.2739779999999996
  6.4610007999999999  4.5892041600000004  5.2725153499999999
  6.4722278199999996  6.0334208499999997  5.3033002299999996
  5.3052333200000001  7.8324291600000002  5.0890728999999997
  3.1919842400000000  6.4800818700000002  5.4488520100000004
  3.1467501699999998  4.0173181199999997  5.1984210199999996
  5.3145711799999997  2.7420915300000002  5.2844329500000002
  7.3688387000000004  4.0309052699999999  5.2767953399999996
  7.4296797899999998  6.5346881999999997  5.4258349199999998
