Mo 
 1.0000000000000000
     9.5479710000000004    0.0000000000000000    0.0000000000000000
     0.0000000000000000    9.5479710000000004    0.0000000000000000
     0.0000000000000000    0.0000000000000000    9.5479710000000004
 Mo 
  54
Cartesian
  9.6626152064317790  9.6213798111958209  9.5801162494454122
  9.6352626565095303  9.6863389544957705  3.1981667877455400
  1.5646306862757902  1.6347407689708202  4.7961346921663806
  0.0563242447666800  9.5544901636393806  6.3606472700409000
  1.5213831516312899  1.5087007727114101  7.9342942008117010
  0.0584359695127500  3.1773789452843402 -0.0822276991302600
  1.5251758921516199  4.7067720807469504  1.5877279919624701
 -0.0137566211370900  3.2750363565100202  3.1901429593562702
  1.5119689477050000  4.7016721275170097  4.7534590809847801
 -0.1089083583332400  3.2714631238429801  6.3739299298975505
  1.5762923870957701  4.7282407890201599  7.9110109006499405
  6.4467570787000508  6.5426084912110802  6.2889004741570504
  9.5513383784122805  6.3685089738825900  9.5284504597296316
  0.1012311212912700  6.4749791623412696  3.1687378405699200
  1.4892637771872901  7.9520338535311508  4.8314036558041504
 -0.0320507245325100  6.3013152234497998  6.4077974423519404
  1.5928335784953001  7.7662033171132201  7.9882689763544104
  3.3364606499863503  9.5911297385141996  9.4553657066695500
  4.7414928953696105  1.5101833816482901  1.6575772240897801
  3.2383746303424803  9.5829581075338499  3.2185500826754700
  4.7366118771147008  1.5096435393679499  4.8797306155409403
  3.2510701854623405 -0.0600798436798200  6.4440138511520404
  4.7617870122504007  1.5339036924427198  8.0296310731655414
  3.3361937841969000  3.2034423281621702  9.5675052893486114
  1.5896477070117301  1.6255956268673102  1.5754402306840201
  4.7755708451048404  4.7276771722920303  1.6556056635579901
  3.2304232710531000  3.1625921935560601  3.2488858006569599
  4.7789116801577398  4.6683596386168498  4.7829651757660807
  4.6972021494136502  4.6645157209719601  7.9890415981677307
  3.2619285200023800  6.4060892148603310  9.5444268886445105
  4.7073163150939505  7.9786935071979297  1.5764731301868000
  3.1975900902971399  6.3845830785407998  3.1787464056909602
  4.6751534973819000  7.9368549666339003  4.7641155714178804
  3.2363236306919703  6.3456883683954901  6.2183881354437904
  4.7325040535513700  7.8607943019725406  7.9720058218704004
  6.4885626787641302 -0.0223780570312500 -0.0527331573938700
  7.9139300018237710  1.5763280010276002  1.7201935817454601
  6.3918086965544703  9.5083462519920303  3.0682027663645499
  7.7953813436109600  1.6530662851908302  4.8111330269320201
  1.5038178448623001  7.9977600414472505  1.5658753597753501
  6.4563298744246502  0.1359809617457700  6.3367196727960602
  6.3837691140130506  3.2257923141586802  9.5358172922343911
  7.8712454155494305  4.7051480663595600  1.4407265711290800
  6.3327985120657804  3.1651592610391206  3.2341242555721204
  7.8781186179534908  4.7033262180130500  4.6598800855717499
  6.3851685601225201  3.2528005642466700  6.3231131457630898
  7.8070360744121103  4.7250060319250702  7.9594162492286404
  6.3476577328939507  6.4502236605310204  9.5344181325640509
  7.9115232447738002  7.9246538054524205  1.5841534225794900
  6.3930616767887996  6.4131338033438405  3.1533210182353502
  7.9600367718639307  7.9288958734880106  4.7141042541169806
  3.2939036246045701  3.1324450480018200  6.3996554100816905
  7.9517332834040708  1.5289590847009502  8.0642636645361598
  7.8808787454101701  7.9383473145012005  8.0168262892574411
