 C  H 
 1.0000000000000000
    10.5835442180599983    0.0000000000000000    0.0000000000000000
     0.0000000000000000   10.5835442180599983    0.0000000000000000
     0.0000000000000000    0.0000000000000000   10.5835442180599983
 C   H  
   6   6
Cartesian
  5.2670510699999999  6.6688409699999998  5.3626209999999999
  4.0890793099999998  5.9797808000000003  5.2851679799999998
  4.0669771700000004  4.6323791999999999  5.2260371900000004
  5.2866200399999999  3.9256270500000001  5.3402891900000000
  6.5048812299999996  4.5839933600000000  5.2206289999999997
  6.5117330200000003  5.9979442799999996  5.2575343400000003
  5.2692069300000002  7.7136860299999999  5.3719159999999997
  3.1224762799999999  6.5571438300000002  5.2647650199999996
  3.1383203700000002  4.0316360700000002  5.2633970999999997
  5.3445749999999999  2.8530113099999999  5.3628390200000000
  7.4067261999999996  4.1585592199999999  5.3221262400000002
  7.4936186899999999  6.3986631899999997  5.2239432299999997
