Mo  S 
 1.0000000000000000
     9.5642410000000009    0.0000000000000000    0.0000000000000000
    -4.7821199999999999    8.2828759999999999    0.0000000000000000
    -0.0000000000000000    0.0000000000000000   18.1582730000000012
 Mo  S  
   9  18
Cartesian
  0.3054825321035000  0.0839325360557600  9.0772089993210496
  1.2795908460498202  2.9240204713762004  9.0669927917657915
  6.1544028680524816  0.0053797279620000  9.0714243182914416
  3.0882508928062000 -0.2160597315763600  9.0090372134144197
  0.2095648661171898  5.6768303341957198  9.0362611857923998
  5.0718001571845504  2.8720571861601201  9.0666178234283414
 -1.5050028456971201  2.5038896429458801  9.0368202790180714
  3.1430881827254407  5.2767477101508398  9.1250589539997318
 -3.4431703655481600  5.6677937164797196  9.0340340736089502
  4.7552579035760605  0.9422916971750800 10.6517419043878494
  1.6668215017429799  0.9832069510673199 10.6978156168016714
  0.0534396860183699  1.8405633043893201  7.3805584398401098
 -0.0195737079053795  3.7872488868096399 10.7058697187908205
 -1.5931640247456798  4.6485324001295201  7.8134576603902008
 -1.6530130663030698  6.3896427154142801 10.6622455574047006
 -3.1091683179044400  7.3517648601647601  7.3485813579216499
  3.2415515003943005  1.8198446011916800  7.8582967918227498
 -0.0784747730467599  7.3888870538215601  7.3676250283131308
  3.1128486768386914  3.5927821159927196 10.6580751468447907
  1.5969306605565010  6.4189780116859598 10.7146630440738004
  1.5829447178946796  4.6758249735220803  7.3471840788143004
  8.0092421830450409  0.8976666259512001 10.6614251666305613
  6.4563784341513308  1.7078928350318798  7.3980390460917507
  6.4023303142203307  3.7500868525192801 10.7374587584152703
  4.8617509273321806  4.6107384652291197  7.4391283125670711
  4.6721104562085696  6.4724784330301199 10.7475536687068907
  3.2076026091478917  7.4291273361485599  7.7995378914738600
