 C  H 
 1.0000000000000000
    10.5835442180599983    0.0000000000000000    0.0000000000000000
     0.0000000000000000   10.5835442180599983    0.0000000000000000
     0.0000000000000000    0.0000000000000000   10.5835442180599983
 C   H  
   6   6
Cartesian
  5.2814658500000000  6.7261238700000003  5.3219320300000001
  4.1170410400000002  6.0158542800000001  5.2333530599999998
  4.0773130599999998  4.6087540899999997  5.3310889200000000
  5.3316990600000000  3.8730453599999999  5.3752778599999997
  6.5317248000000001  4.5864709599999998  5.2751490700000003
  6.5347527599999999  6.0416903000000000  5.3743253400000004
  5.2006589099999996  7.7871257700000003  5.3648842900000000
  3.1355040900000000  6.4412741300000000  5.1462610800000004
  3.1265514699999999  4.1102612199999999  5.3079559400000003
  5.2035069399999996  2.7415073200000002  5.3652959899999999
  7.4496139000000001  3.9781801699999999  5.0917568800000002
  7.5114318500000001  6.5909767800000001  5.3139832599999997
