Mo  S 
 1.0000000000000000
     9.5521989999999999    0.0000000000000000    0.0000000000000000
    -4.7760999999999996    8.2724469999999997    0.0000000000000000
     0.0000000000000000    0.0000000000000000   18.1271130000000014
 Mo  S  
   9  18
Cartesian
  0.0403573740027300 -0.0311318652440400  8.9378984463283508
  1.6118374179118700  2.7090308318529202  9.1614256894426500
  6.3559334878838900  0.0290950233437000  9.2073496426013701
  3.1873878829075903  0.0784782229549000  9.0585293077517104
 -0.0233158169977096  5.4940391259326402  8.9201402200779008
  4.8119681770559097  2.7219006912731696  9.2684991017821812
 -1.6251522716366997  2.7525164385488798  9.1334637112845023
  3.1475282799176001  5.5430213600377494  8.9013846400701908
 -3.2235076178885795  5.5340338427190696  8.9966859426852608
  4.7566454360218291  0.9181550872043800 10.7449256275049407
  1.5934842192369401  0.8904541366291199 10.6664412101622297
  1.6249725156613100  0.9269883233865099  7.4965455277359005
  0.0191321654730603  3.6476529456289399 10.6093543995469801
  0.0072454601946002  3.5914640865953098  7.5128686304501411
 -1.5123410692173496  6.3925528595004497 10.5766817285335204
 -1.6015932453407398  6.5702783590218594  7.4573750117964606
  4.7799453458313703  1.0014625992689401  7.6271849120599500
  1.5127372294984800  6.5347721892531601  7.4073244213632901
  3.1797294667203393  3.8375603678780799 10.6276316050426214
  1.5277449410110595  6.3220262780508900 10.5871403476499992
  3.2380000435285998  3.6114994568824899  7.5048122163484203
  8.0937083122766698  0.8129284859462700 10.7060719735007410
  7.9029101020570387  0.9502494516568699  7.5866858600087408
  6.4507103689170098  3.8094189922245403 10.6727719231063514
  6.3455880055173406  3.5373500399937501  7.5930473890449610
  4.7434405755797311  6.3844797784731497 10.4560245827963119
  4.7865457801204192  6.3994647371423596  7.2711327023273409
