Mo 
 1.0000000000000000
     9.5479710000000004    0.0000000000000000    0.0000000000000000
     0.0000000000000000    9.5479710000000004    0.0000000000000000
     0.0000000000000000    0.0000000000000000    9.5479710000000004
 Mo 
  54
Cartesian
  9.5885221876340996  9.5142272292497694  9.5304206835454792
  9.5292318656762713  9.3034636942406994  3.2242363768045199
  1.4815595193873903  1.6130217128979900  4.8111534595899608
 -0.0013034890009200  9.4495753396566009  6.3746147103776698
  1.5555857023880701  1.6236480317427302  8.0067443002394096
 -0.0123226113726000  3.1733604907295700  0.0927518546853000
  1.4768106450511203  4.8338299861946705  1.5169652099698803
  0.0158552651628900  3.1048125515698501  3.2325828311338802
  1.5657192504495001  4.7066127251109604  4.8076686411343799
  0.0629189328566700  3.1047049459366800  6.4171974198014405
  1.5513488857365301  4.8979772655204901  7.9781000053205702
  6.2982036351806103  6.2828493520560897  6.3187791307667700
  9.5231866633173308  6.4572414192160199  9.5726476355697905
  0.0462380546414100  6.2926627566498903  3.2172053464398300
  1.5775931071850999  8.0095822436597413  4.7236454460575699
 -0.0278919148040400  6.3876244892231400  6.3502035084016804
  1.5348860831789102  7.9602923710476006  7.7975702159627103
  3.2579832029054701  9.4287766125084609  9.6097696694192400
  4.8108803876193607  1.7352567472341900  1.5533471805871202
  3.2266896324732603  9.5801115709396196  3.2963566893138898
  4.7820900087442197  1.6447433188701301  4.7739156088522803
  3.1692556270372503 -0.0996705054313200  6.4504776365596204
  4.7682929996898000  1.6985093757667802  7.9158136255426506
  3.2279721159379799  3.1146771332882102  9.6644889957405304
  1.5634962918412803  1.6716720343596900  1.6779055227067501
  4.7577817338956097  4.7896391120153696  1.6023765845503801
  3.2279499646452599  3.1299810986055601  3.3238900778068801
  4.7369249550837909  4.8230182457531097  4.7516288304237904
  4.7971416211880404  4.7476616484732901  8.0113721063033996
  3.1572952656843900  6.3171712524503700  9.4941175791686998
  4.8114769448474402  8.0204326533838497  1.4635624533697800
  3.2853919903769100  6.2930081067609605  3.2324166964384800
  4.7605619120913900  8.0106400633668304  4.7297265487874700
  3.2284298456677201  6.2470666120988110  6.4174917837473702
  4.7009002695413704  7.9550194085831407  7.8898106813212499
  6.4453736731818605  0.0312087844497300  0.0232697420429400
  7.9592836279114509  1.5853433862052202  1.5110404075252502
  6.2623006862684409  9.5742846351977402  3.2833598957089798
  7.9277538406766999  1.6536658977696299  4.7026291206503403
  1.4708965363340101  7.9148118524253297  1.4555944806108601
  6.4118598175733101 -0.0503031032946600  6.3769557773871606
  6.3523106501216704  3.1732844888804101  9.5538067198752010
  7.9441647022720803  4.7769545370621600  1.5112804435161902
  6.4354367178433201  3.1202430275029505  3.2418490415096701
  7.9607960265178512  4.8632817530209804  4.7688524153106897
  6.4286475375840597  3.2063965658692801  6.4607084784455404
  7.9840899249274209  4.8278535292269300  7.9087699918562402
  6.3171606542025600  6.3011528124630907  9.5486011660859997
  7.9130950317598199  7.9608372737525706  1.4475828736244700
  6.3792615169039495  6.4007446426133709  3.0734763971869801
  7.9710064357458297  8.0267512141525206  4.6848274061193900
  3.2152144035269101  3.1610387386743599  6.5591645774453697
  8.0580621618919501  1.5240013962389101  7.8094044486186602
  7.8967515788396998  7.9727298445113304  7.8925119932765710
