Mo 
 1.0000000000000000
     9.5479710000000004    0.0000000000000000    0.0000000000000000
     0.0000000000000000    9.5479710000000004    0.0000000000000000
     0.0000000000000000    0.0000000000000000    9.5479710000000004
 Mo 
  54
Cartesian
  9.5760286675805997  9.4167020574224409  9.5849778853191907
  9.6458962318122303  9.4683413037788409  3.1801581686830205
  1.5988039247616002  1.6809451192746001  4.7218695234515700
  0.0220374809056800  9.4975098777852907  6.4146370358980800
  1.5015924037816200  1.6038315043713602  7.9672044336936310
 -0.1364625614030100  3.0508607866372501  0.0098378473995600
  1.5128116516254602  4.7124424297644305  1.6460797483710001
  0.0310591677441600  3.1132556313657305  3.2448884471181003
  1.6065883855179000  4.7778719061158403  4.7935320107514903
  0.0490356101444100  3.1359503945950502  6.3700046635397394
  1.4955057632285400  4.7750332943375398  7.9847480665684509
  6.4254738875033706  6.3065083648767004  6.3263940195581103
  9.6477754634644501  6.3288794518891205  9.6295061847936303
 -0.0233785889123400  6.2937141792164102  3.2092389013562705
  1.5167961154034701  8.0897945570713201  4.7730857946926708
  0.0532572455220600  6.2211492176975707  6.4079140230778506
  1.5926351716579201  7.9398606679047008  7.9035647245061709
  3.2447855199907201  9.4790424787162202  9.4898742698968803
  4.6664048825140201  1.7268467988976801  1.6011221721204001
  3.2081958810042304  9.5875091479109997  3.1435962188124305
  4.8798148286451601  1.8085389523345501  4.7363891229512696
  3.3834394362179401 -0.0620939881622700  6.3440962442312410
  4.8164099995443008  1.6097482865203501  8.0035939472079605
  3.1239013325916001  3.0558505562818499  9.5862509162926202
  1.5465672618597301  1.5522124042337702  1.5056465677479300
  4.7595636717233401  4.8478633075313402  1.5401475880781701
  3.1228913482192202  3.2049032632048804  3.2953036435923000
  4.7566993759030503  4.8081056517670504  4.7267293452108596
  4.6985557652623209  4.7133905432847305  7.9736973404127598
  3.2004171490305304  6.3456333720825304  9.5511911486994610
  4.7114886829412406  8.0073557523022512  1.5911905636456201
  3.1921813556850602  6.3030607835080206  3.1538177991664798
  4.7171172118457401  8.1009164156109605  4.7030065519439708
  3.1963878097888201  6.2882159801160604  6.3621552765806406
  4.7289034182075600  7.9273871031105907  7.9599924692784905
  6.4444493341093505  0.0311354560324500 -0.0221124324780300
  7.8873994367249107  1.6533800315178901  1.5769913940526801
  6.4016426292859201  9.4787510746413002  3.1393411655362802
  7.8871878536875508  1.6154201632131902  4.7800150436865003
  1.5967377438372001  7.9616034984253199  1.5001726204939201
  6.3942616657840805  0.0108061071386700  6.3876319366405205
  6.3943360444781705  3.0852708148038599  9.5548557554489708
  7.8776740644237302  4.7904868763604602  1.6507047855234001
  6.3658602712474810  3.1785353000521499  3.1911879847822200
  7.9697523097549805  4.7556996078596399  4.8143724625329005
  6.4944511989189611  3.2751061521780302  6.3503819599796696
  7.9312793334887406  4.8995173532427909  7.9776870555748198
  6.3747753072498909  6.3971618619753308  9.5375140621608008
  7.8609404814085506  7.9705520478059402  1.5743022080205300
  6.4109420666007901  6.2729528801145902  3.1318418071940402
  7.7817473184215107  7.9316012910708604  4.7744510590659601
  3.2850873146223001  3.1926598045118699  6.4461142138126197
  7.9596900850369208  1.5587296582789500  7.8774059573980511
  7.9827266656280411  8.0709745514332205  7.9663391010818998
