Mo  S 
 1.0000000000000000
     9.5642410000000009    0.0000000000000000    0.0000000000000000
    -4.7821199999999999    8.2828759999999999    0.0000000000000000
    -0.0000000000000000    0.0000000000000000   18.1582730000000012
 Mo  S  
   9  18
Cartesian
  0.2341697382149101  0.1537273623821600  9.0173464391392208
  1.3730430420416402  2.8773186346528403  9.1053692122549119
  6.1242261228983308  0.2257144174994800  9.0366065561448607
  3.0929163742752599 -0.2676114406840000  9.0616727809422510
  0.3132781558840203  5.6661714323863599  9.1461323561471506
  5.0515542309483310  2.7703602831184000  8.9903240235915405
 -1.6335931564294000  2.5189615782592796  9.0579194659131517
  3.2158173514073805  5.3120403821567592  9.0718630221671201
 -3.4698514445914999  5.6205337795714794  9.1006386189729511
  4.6276887675928302  0.9695805432734400 10.5917941819056498
  1.7280939946087202  0.9146201822055200 10.6522910105633724
  0.0564790141105501  1.8999879699637201  7.4173674382038710
 -0.0465766739629794  3.6988494785558399 10.6248199040898612
 -1.5950646341087100  4.5923494865640002  7.9759277185613211
 -1.5899935214082497  6.3201748970323592 10.6139883126626309
 -3.1939789431268402  7.2675755549529999  7.4759607351030004
  3.0644701482076302  1.7548053052919199  7.7032097058707008
  0.0377538044019101  7.3802374120722796  7.4689133277689708
  3.1441865812062808  3.5800963944261599 10.5980159325663710
  1.6721906315259010  6.5946894522322799 10.6884504875019211
  1.5250574862065809  4.7125341001527596  7.4072472879127806
  7.9989092103571604  0.8012952808624401 10.6063050026081420
  6.4759043173581103  1.8237409488908400  7.3492779092739307
  6.4368960972769713  3.6574341874394798 10.5968568900007813
  4.7747575990854401  4.5304499804695597  7.4581917754761200
  4.7313912545739205  6.5839059759678804 10.7244521690481012
  3.3249713850245004  7.3780217427422805  7.8434540378898205
