 C  H 
 1.0000000000000000
    10.5835442180599983    0.0000000000000000    0.0000000000000000
     0.0000000000000000   10.5835442180599983    0.0000000000000000
     0.0000000000000000    0.0000000000000000   10.5835442180599983
 C   H  
   6   6
Cartesian
  5.2736890699999996  6.6424969400000000  5.3827588400000002
  4.0487602400000000  6.0029550599999997  5.2225763699999996
  4.0674211500000004  4.6206600399999997  5.2553393200000000
  5.3136112500000001  3.8459811199999998  5.3202873500000001
  6.5257980199999999  4.5690663300000001  5.2530511500000001
  6.5164760299999998  5.9464209400000003  5.3210959300000003
  5.2765773100000004  7.8105117000000002  5.3479871299999999
  3.1448975199999998  6.6109780899999997  5.2665160699999998
  3.1143671700000000  4.1185343699999999  5.2433423399999999
  5.3900022200000004  2.7578964699999999  5.4332402300000000
  7.4728691200000004  3.9873254100000000  5.1986369200000002
  7.3567967400000001  6.5884399000000000  5.2564352400000001
