Mo  S 
 1.0000000000000000
     9.5521989999999999    0.0000000000000000    0.0000000000000000
    -4.7760999999999996    8.2724469999999997    0.0000000000000000
     0.0000000000000000    0.0000000000000000   18.1271130000000014
 Mo  S  
   9  18
Cartesian
  0.0239392952237500 -0.0651687657010700  9.0521418569438996
  1.6149146082875099  2.7548802902791301  9.0862636093705813
  6.3131189612478993 -0.0601621153277300  8.9885118836201698
  3.1932395097824897  0.1193690112003700  9.0572107415520904
 -0.0198435950639799  5.5337927008890198  9.1552921994879704
  4.7640920252206609  2.8058876194098397  9.0556699369470905
 -1.6616864630885497  2.6111988882436399  8.9630512657848911
  3.1709743904677095  5.5546088247240597  9.1008921895615806
 -3.0551555090210698  5.5591002670982403  9.1123579510763406
  4.8500593963797911  0.9612665311225300 10.5572012452769410
  1.6297123172320602  0.9199244808932100 10.6831672785984608
  1.5017847274079099  0.9781893932259600  7.4223644870193901
 -0.1520789165559999  3.6226005844096698 10.6204628756645114
 -0.0761352554915198  3.5991421582783603  7.5366671732944504
 -1.5147646659882197  6.6049990599479091 10.7358742161706502
 -1.4878116474619500  6.4650801322569604  7.5498541041885607
  4.7512714151748305  0.9421550277163099  7.4612012828085001
  1.6061591348926505  6.3014012477415502  7.5063475828195214
  3.2037490961029000  3.7696580547903298 10.6944305602610115
  1.5958148578653100  6.4616593926979897 10.6560255523035607
  3.1677905141170304  3.7283669628345302  7.5003346381662901
  8.0191975758732390  0.8481493390179400 10.5663400292958922
  7.8917741075470609  0.8369960950746599  7.3681006117116308
  6.3374806684248792  3.5987845403945502 10.6456282028290197
  6.2893615042371405  3.7557332929286398  7.4803351756645204
  4.7521138276877197  6.4060050991894997 10.6835816644016415
  4.9019458012329009  6.3909363406321793  7.4779454783577304
