Mo  S 
 1.0000000000000000
     9.5521989999999999    0.0000000000000000    0.0000000000000000
    -4.7760999999999996    8.2724469999999997    0.0000000000000000
     0.0000000000000000    0.0000000000000000   18.1271130000000014
 Mo  S  
   9  18
Cartesian
  0.0023782578586800  0.0146810289664300  9.0807830580261601
  1.5791303479973302  2.8118006818009702  9.0265786396490419
  6.3982064113480508  0.0106205810809500  9.0407670935364006
  3.1759273514280801 -0.0180895253038400  9.0639830309688900
  0.0393117431580503  5.4900334416462995  9.0963901397769007
  4.7333986641416903  2.7471068372821699  9.0431669420264704
 -1.6502056354637198  2.7454485425565500  9.0452037044431499
  3.2020404362906500  5.5190839592251395  9.1073974666038904
 -3.1381806400449799  5.4996981414763999  9.0665714014341621
  4.7303523874045696  0.9177716592859300 10.5526197987373216
  1.6099553078089599  1.0057497949266900 10.6096031035373404
  1.5899724454189998  0.9463358397056399  7.5472379992404006
 -0.0186080004913596  3.6616724270087802 10.6324086431315106
 -0.0459908116698097  3.6602677655081797  7.4913301760546700
 -1.5298485796791297  6.4145510332873199 10.5789113634325211
 -1.5674521970167097  6.4295278849584703  7.5596021404754401
  4.7433851203354704  0.9313174603505500  7.4677892194860904
  1.5960124519768799  6.3479090275000196  7.5102356672868904
  3.1722596557117200  3.6951190883723601 10.6341624413142615
  1.6116219817630306  6.4333753173336996 10.6465987284590398
  3.1484146420745902  3.7374147035673699  7.4843755278810900
  7.9481717667622105  0.9076708360499899 10.6736594265588298
  7.9734088189568695  0.9216731934645399  7.5216276514517402
  6.3563335539787502  3.6491878981697901 10.5954702998868910
  6.3483095165342807  3.6366218857278496  7.5223090496294107
  4.8302189575600103  6.4285730791257301 10.6200867380697606
  4.7756531182381812  6.4457336913559393  7.4994795822460807
