 C  H 
 1.0000000000000000
    10.5835442180599983    0.0000000000000000    0.0000000000000000
     0.0000000000000000   10.5835442180599983    0.0000000000000000
     0.0000000000000000    0.0000000000000000   10.5835442180599983
 C   H  
   6   6
Cartesian
  5.3017000000000003  6.6798018199999998  5.3076839400000004
  4.1145020399999996  5.9923609300000003  5.2644448700000002
  4.0859841499999998  4.5903964000000004  5.3429620699999996
  5.3176240000000004  3.8914141600000001  5.2801693700000003
  6.5550472299999996  4.6058409700000000  5.2646443700000001
  6.5606432799999999  6.0086251900000001  5.3168598700000000
  5.2510889699999996  7.7714028500000003  5.2720089300000001
  3.0884972799999999  6.4514459700000000  5.2727730599999996
  3.1512354700000000  4.1247172799999996  5.2808292500000000
  5.1710329200000000  2.7940334500000001  5.3314090700000003
  7.4735131299999997  4.0657822799999996  5.2281189699999997
  7.4303968300000003  6.5254429399999996  5.3393620700000000
