Mo  S 
 1.0000000000000000
     9.5521989999999999    0.0000000000000000    0.0000000000000000
    -4.7760999999999996    8.2724469999999997    0.0000000000000000
     0.0000000000000000    0.0000000000000000   18.1271130000000014
 Mo  S  
   9  18
Cartesian
 -0.0105114316133200  0.0130661645875600  9.0775451931021021
  1.6199569762761399  2.7393031898536599  9.0785817014234418
  6.3864483237703196 -0.0015786310610100  9.0383888163107997
  3.1525505439078598 -0.0598903654437800  9.0404478750764703
 -0.0227927905266202  5.5632820717812095  9.0712851758986801
  4.8093468595497404  2.7724716488246299  9.0653527156271707
 -1.5702541138921999  2.7780505870814300  9.0445444213433408
  3.1698991987330909  5.4919893790149796  9.0490794624736797
 -3.2223358958774093  5.5088717888525798  9.0807250512645599
  4.7732721389276200  0.8843471680803100 10.6170959456958922
  1.6210003798912200  0.8789903450254600 10.6026745584064805
  1.6117564279334999  0.9190198888137600  7.5301707785375109
  0.0230620767827099  3.7575430561588301 10.5958446247703417
  0.0771375551471201  3.7208885052975900  7.5218872317099006
 -1.5673854734677199  6.4057201961148200 10.6230719110386005
 -1.6632941806556996  6.3463482649245293  7.4920858953956397
  4.8020555428485903  0.8598732163552799  7.5224089300220403
  1.6266491645512211  6.4722830345843301  7.4965730809476607
  3.2000848792404595  3.6592380940300897 10.6160431229728509
  1.6700497716330809  6.4742455899106099 10.6235636996142908
  3.1591912972090697  3.6132342717428596  7.5475037427169811
  7.9251879276529609  1.0156987360357099 10.6141357881429901
  7.9365476470021195  0.9248112635095200  7.5171968412211507
  6.3792860071395898  3.6565555876414000 10.6087052676304516
  6.3030786100574803  3.6767586404292700  7.5230729261712304
  4.7500057957260600  6.4874944101279297 10.6251284320084505
  4.7333438965659997  6.4617565112257696  7.5448183921971603
