Mo  S 
 1.0000000000000000
     9.5521989999999999    0.0000000000000000    0.0000000000000000
    -4.7760999999999996    8.2724469999999997    0.0000000000000000
     0.0000000000000000    0.0000000000000000   18.1271130000000014
 Mo  S  
   9  18
Cartesian
  0.0030705988162500  0.0548181145657300  9.0829726320054309
  1.6118953044241400  2.7059480217538998  9.1319598859900193
  6.3797411967707891  0.0432693649313800  8.8509336217108512
  3.1750792133989103 -0.0465474047796000  9.0492875617309210
  0.0729949903434705  5.5478470919951990  9.1348060240021507
  4.7890969688170903  2.6571300784462100  9.0107873864302199
 -1.5262162862869200  2.8903985243394903  9.0022147121502609
  3.1887060930163509  5.4999124805781694  9.1639582283998795
 -3.3122951593136398  5.4513597519212995  9.1587997958534721
  4.7682737634809502  0.8227329901306699 10.5215455765482009
  1.5335479915748698  0.8874209612121000 10.6496411831049613
  1.5947490266379802  0.8783523739128200  7.5548649820351503
  0.0713024967894900  3.7552438122396499 10.6169318953232406
  0.0789932629209805  3.6865722443053697  7.4374906564622405
 -1.5283944988254896  6.4582152421140098 10.6044729492872101
 -1.7453732655402896  6.3473290462408496  7.6007051879318102
  4.6796245744013598  0.9263055156111299  7.3392567495060304
  1.5473754252524408  6.3405324865101198  7.4710125827197498
  3.2449536611686196  3.6304271465163698 10.7258925213972010
  1.6216780991539508  6.5635393755222502 10.6167982985004308
  3.1901843118115103  3.6547944663995700  7.6715546465500513
  7.8559363947041492  1.0262644707930499 10.4763949260300606
  8.1362165383461011  1.0561462038464497  7.3845226884628508
  6.4762065819671193  3.6629924613765699 10.6172036207471123
  6.2916165466205802  3.6398443347322300  7.5912156442763106
  4.7426536092097500  6.5243728961294600 10.6645501897340704
  4.5927501961827408  6.3579989311059197  7.5589385068685102
