Mo  S 
 1.0000000000000000
     9.5642410000000009    0.0000000000000000    0.0000000000000000
    -4.7821199999999999    8.2828759999999999    0.0000000000000000
    -0.0000000000000000    0.0000000000000000   18.1582730000000012
 Mo  S  
   9  18
Cartesian
  0.2758146893572601  0.1244343916068400  9.0191008914764801
  1.4050231384028706  2.8817237165959195  9.0625249486941417
  6.0537582330159303  0.2782187401758800  9.0645214508104903
  3.2143263755709004 -0.3377992066478400  9.1116401718354592
  0.3164787817032905  5.6726291766597594  9.0916580818953392
  5.0054500551969801  2.9175159288533998  9.0757977383434909
 -1.6237142549551500  2.4683590039124801  9.0150719338632399
  3.1506947176699707  5.2508193264354794  9.0708953677989506
 -3.4256910957180300  5.6301391823823996  9.0552774371916502
  4.6540108498372703  0.9669284492070001 10.6386483368930111
  1.7004158482535801  0.9470820985096799 10.6516120727359009
  0.0077604396456000  1.8245620303887200  7.3771207155957503
 -0.0033402320739398  3.6868559569365997 10.6526461863832509
 -1.5535965256514199  4.5652271262732400  7.9023598386672802
 -1.6299001714470001  6.3544682400488801 10.6969761598408812
 -3.2161681666401001  7.3817394288061200  7.3960109485803809
  3.2659915334697804  1.8532233490402799  7.7406949183209797
  0.0179988587711600  7.2834064501942795  7.4305516154809803
  3.1669990715510701  3.6823933090053202 10.6995760613690205
  1.6852721182889998  6.5306686187654801 10.6567446901820801
  1.5807980673876010  4.6023420309991598  7.3908055164594701
  7.8597698775250509  0.8325144344515600 10.6601415583121906
  6.3003547350860512  1.9060913728018400  7.3520228954033406
  6.4137846359840704  3.6748339422239198 10.6649012048309508
  4.7332195249758806  4.5040756467103602  7.4223823900410100
  4.7969336516815506  6.4601328063521199 10.6888267269184798
  3.1816588371737500  7.3774030947338396  7.8384837554042601
