Mo  S 
 1.0000000000000000
     9.5521989999999999    0.0000000000000000    0.0000000000000000
    -4.7760999999999996    8.2724469999999997    0.0000000000000000
     0.0000000000000000    0.0000000000000000   18.1271130000000014
 Mo  S  
   9  18
Cartesian
  0.0364655679441700 -0.0082836148034500  9.0724668823951511
  1.5554102842738404  2.7357883925722999  9.0613208831537104
  6.3004647307229602 -0.0161413640353400  9.1232217111683696
  3.1976964299559301 -0.0031132527039800  9.0761107946504112
 -0.0190524810220199  5.5185584933916996  9.0425159973986400
  4.8154947018077898  2.7853658292390602  9.1598078446074016
 -1.5996029101887299  2.7647484095809598  9.0592554798984910
  3.2052164457262502  5.5391017919246792  9.0074851702550109
 -3.2057537558046194  5.5052527587390196  9.0023876448082802
  4.8073852383356597  0.8880983918969300 10.6432745784771008
  1.6353511733633601  0.8865431718609299 10.6409311053084608
  1.5744246655572902  0.9442904771848900  7.4960289050154003
 -0.0324284106826795  3.6966177248708796 10.5972052458721215
  0.0070431867833502  3.6840728898932595  7.4261006662798206
 -1.6400068769254994  6.3829439159631294 10.5545898533781610
 -1.5918691445228899  6.4048816181624302  7.4531388867594908
  4.8357007215737795  0.9664482264743900  7.5968935998813008
  1.6098298441242098  6.4635438561245904  7.4526046807393813
  3.1470307673516000  3.7356421663486801 10.6430079286448720
  1.5867634389791700  6.3610451769891991 10.6253782236255923
  3.1861003659748999  3.6328915084776696  7.5654880140665410
  8.0385787935187594  0.8991324298789399 10.6461203539469711
  7.8671733236133301  0.8844490846273499  7.5519432539618103
  6.4497509992813109  3.7189041107112297 10.6441502993061299
  6.3658590031356201  3.7101712193112095  7.5539722217199001
  4.7867933714869197  6.4264590552948802 10.5402348113223301
  4.8052455897635511  6.4816634931355095  7.4155253085556208
