Mo  S 
 1.0000000000000000
     9.5642410000000009    0.0000000000000000    0.0000000000000000
    -4.7821199999999999    8.2828759999999999    0.0000000000000000
    -0.0000000000000000    0.0000000000000000   18.1582730000000012
 Mo  S  
   9  18
Cartesian
  0.2422027402416200  0.0876434301612800  9.0669312352203217
  1.2647025234924203  2.8686720575676796  9.0966301802081997
  6.1770979575071303  0.1104619252536800  9.0425056342943702
  3.2819136210018800 -0.2363187351560000  9.0762384396292006
  0.2210907319366001  5.6601040600588401  9.1173591199168111
  5.1015408353122407  2.8926205854327600  8.9775676552263111
 -1.5916298137976501  2.4549883713294802  8.9970808985575701
  3.1364604973538706  5.2584093398580798  9.1172577967534707
 -3.4640831073321499  5.6213394549200002  9.0712354722522406
  4.7525410930280598  1.0706838954210001 10.6206805441767802
  1.6843142064150403  0.8972355022553999 10.7097027486383904
  0.0650797052246501  1.8929250787697600  7.3418894895729601
 -0.2239830582908897  3.7760958286181197 10.5858624188647408
 -1.5915543132119998  4.6808716470401199  7.8702992286930202
 -1.6350135446603002  6.4335487501726005 10.6627323807038312
 -3.0392184748850100  7.3034151452612006  7.4392076642200804
  3.2158428736804701  1.9071952316863601  7.9160686084513605
  0.1016402062577303  7.3435360713450395  7.4202578721000103
  3.1582709251779808  3.4948472952302003 10.6695190352375811
  1.5562105305827505  6.5623279243852402 10.7030611787059105
  1.5464041033332803  4.6521350370457206  7.4672128055025206
  7.8937144708947216  0.8685110680887200 10.6067582331022212
  6.4450601625258015  1.7634322519609600  7.3850918342772909
  6.5114096709175602  3.7675258681359600 10.5794086054750807
  4.6802935057895700  4.5671088300429199  7.4506473762100809
  4.6843113282021802  6.6191836559682402 10.6120793334221410
  3.1651517198703907  7.3363756907005602  7.8310423135461313
