 C  H 
 1.0000000000000000
    10.5835442180599983    0.0000000000000000    0.0000000000000000
     0.0000000000000000   10.5835442180599983    0.0000000000000000
     0.0000000000000000    0.0000000000000000   10.5835442180599983
 C   H  
   6   6
Cartesian
  5.3390599099999996  6.7020060900000002  5.1845772099999996
  4.0629321400000000  6.0029259499999998  5.3208673299999996
  4.1125202700000001  4.5892999500000000  5.3276381500000003
  5.3307920500000003  3.8982844700000001  5.1674371600000004
  6.4329671099999999  4.5815940700000004  5.4035708500000004
  6.4884412800000000  5.9530023200000004  5.1660671200000001
  5.4305890500000000  7.7906019300000002  5.1916539000000004
  3.0709100800000000  6.5551472500000001  5.5193410600000004
  3.0855021400000000  3.9770503800000001  5.2869613600000003
  5.3558178999999999  2.7982880300000001  5.0831561599999997
  7.3937121499999998  4.1305953799999999  5.5904312599999999
  7.3980217699999997  6.5224710799999999  5.2595632099999996
