 C  H 
 1.0000000000000000
    10.5835442180599983    0.0000000000000000    0.0000000000000000
     0.0000000000000000   10.5835442180599983    0.0000000000000000
     0.0000000000000000    0.0000000000000000   10.5835442180599983
 C   H  
   6   6
Cartesian
  5.2553948799999999  6.6978012500000004  5.2699308499999997
  4.0584304299999996  5.9404131900000001  5.2718448799999997
  4.0658680100000000  4.5913129399999999  5.2414690500000001
  5.2715051500000003  3.9528050700000001  5.2506730299999997
  6.5042081200000004  4.6422473000000002  5.3238148499999998
  6.5030931399999998  6.0787930299999999  5.3216081800000001
  5.3633009899999999  7.7675366900000000  5.3159872600000000
  3.1103904000000000  6.5126320900000003  5.3755689100000001
  3.1300615100000000  3.9688359599999998  5.2124272800000000
  5.2922758900000000  2.8520333899999999  5.4049022600000001
  7.4182590900000003  4.0215192599999998  5.2676453299999997
  7.5284777099999998  6.4753351500000003  5.2453939600000004
