Mo  S 
 1.0000000000000000
     9.5521989999999999    0.0000000000000000    0.0000000000000000
    -4.7760999999999996    8.2724469999999997    0.0000000000000000
     0.0000000000000000    0.0000000000000000   18.1271130000000014
 Mo  S  
   9  18
Cartesian
  0.0192260971793800 -0.0688949240032800  9.0706063155168302
  1.6167212163758802  2.7434394960781296  9.0841014073319393
  6.3465057106442400 -0.0431792779835500  8.9934785313110410
  3.1796293000828899  0.0822989353263200  9.0420252964497294
 -0.0221120517229696  5.5410802303491993  9.1417771678485611
  4.7709325473335804  2.7833031773040799  9.0422716439154005
 -1.6700685681450900  2.6554241344258700  8.9903405467796098
  3.1628247406011201  5.5586748978734999  9.0831589787270701
 -3.1092278326262295  5.5538370054189592  9.1049118768693322
  4.8305482198102601  0.9310740022353399 10.6342782735663306
  1.6559315763716502  0.8994678776047900 10.6638151353019204
  1.5406675768112801  0.9371425866300700  7.4464528824005711
 -0.0879387213168796  3.6746702611841200 10.6202971938516910
 -0.0447234718653799  3.6304521293063097  7.5393885967691405
 -1.5237102488049297  6.5423634829671800 10.6713059834780406
 -1.5364427503524496  6.4333733319464192  7.5275296581734112
  4.7498469919206494  0.9312238162505099  7.4903264778078604
  1.6112043172641506  6.3439932647125694  7.4435701276201804
  3.1837737758934006  3.7773625983037800 10.6760993359686296
  1.5957062974148510  6.4568419331875395 10.6619186767398606
  3.1865429142316102  3.7176503386439097  7.5493135536789007
  8.0002197423774888  0.8834313254729400 10.5208786800609317
  7.9030506673823702  0.8722064421386400  7.4201270574618006
  6.3857192718715714  3.6236566449936896 10.6142927689415707
  6.3051042467611103  3.7200452120504099  7.5135647115893409
  4.7854675274634602  6.4066425739553203 10.7046375750490501
  4.8735466335164697  6.4319590744072999  7.5040748053915811
