Al 
 1.0000000000000000
     8.0780951000000005    0.0000000000000000    0.0000000000000000
     0.0000000000000000    8.0780951000000005    0.0000000000000000
     0.0000000000000000    0.0000000000000000    8.0780951000000005
 Al 
  32
Cartesian
  8.0283820988498462  7.9651121961600175  0.0774322574572460
  0.0058605772140990  1.9972615950567632  1.8571172273763441
  1.9674208694145101  0.1069577758286970  2.0356356164579013
  2.0564096497218158  2.0156493590281381  0.0439245613252990
  0.0153852168036560  0.0726362116154250  4.1699117212485888
  7.9417591502544767  2.1108170742774339  6.0042332912812917
  2.0900527347276392  8.0170166229488995  6.1978570719522406
  2.1082271562074233  1.9564050134694932  3.8459862470908646
  8.0563039537820451  4.0493227254052977  8.0725515880185768
  0.1424126160035480  5.9812398013886510  2.0288878220589690
  2.1711336253987019  4.0196686037598548  2.0258647565296961
  2.0289332209534314  5.9405269291132097  7.9555613027613852
  0.0122623060189470  3.8932944801107006  3.9585456971857051
  7.9493925462192214  6.1282384327614201  5.9485673802900445
  1.8569411249031640  3.8536105955890974  5.9625848140313682
  1.8489955913437552  6.0362708548859887  4.1024127742120085
  3.9905944085616412  8.0681302850084453  7.9798195800038325
  4.0762219742787877  1.8773090723264021  1.8662777064387932
  5.9761029407145614  7.9217988235099845  1.9048426940080951
  6.0375960663871444  1.9741212453952051  0.0753095764078190
  4.0224376939791844  0.0264690903094150  4.0290005000003264
  3.9576492709724587  2.2043522065070205  5.9940982708259787
  6.0218198697806482  0.0962886317253720  6.0261809909822857
  6.0902462629156595  2.0263282776265341  3.9773910852444949
  4.0800940476030707  4.0922445527858340  0.1295749072706280
  3.9473558390722343  6.0338245653468565  2.0544284161175903
  6.0967247336239581  3.8696675060003178  2.0805588726804132
  6.0389136036979547  6.1034654192992015  0.0163373010921420
  4.1437794067238922  4.1634756605395653  4.0666129185954363
  4.0915180089125407  6.0764343359136790  6.0583469155181220
  6.1054983527120674  4.1331770684670444  5.9711656089894420
  6.2172924840771344  6.1748353087267507  3.9225475243344281
