Al 
 1.0000000000000000
     8.0780951000000005    0.0000000000000000    0.0000000000000000
     0.0000000000000000    8.0780951000000005    0.0000000000000000
     0.0000000000000000    0.0000000000000000    8.0780951000000005
 Al 
  32
Cartesian
  8.0288110456996549  8.0137686632520442  7.9985396768076216
  0.0739520525262640  1.9946939725292281  1.8385012572183941
  1.9141161856209929  8.0665298528072320  1.9380572360688633
  1.8936400725043661  2.0723264859640032  7.9366424848181367
  0.0600826094871720  0.0446690385697150  4.0084762414369033
  0.0375188742538520  2.0983188878815673  6.0974518429639089
  2.0869554315043972  0.0082749582775870  6.0447676376550223
  2.0441060646369080  2.0535405526851491  4.0045668473132583
  8.0026657254418492  4.1864525095562994  7.9898271281184670
  0.0014839460698700  6.0636031704377906  1.9155431811204080
  2.2054479193263843  3.9714145873657114  1.9617771890538460
  2.0416166380699408  5.9932982970682254  8.0723889759642145
  0.1454830999510580  4.0508483544458844  3.8873761445166366
  0.0264481680431060  6.0714932882648132  5.9897423196052051
  1.9851967176820602  3.9402044630421060  5.9696828746338362
  1.9724620854426160  6.0328366950970773  4.0888126548635499
  3.9754052471260621  7.9891327350636718  8.0147952275773520
  4.1368160079667406  1.8819189180761682  1.9875589142512022
  5.9946780357113054  7.7838878875628135  1.9016231692059902
  6.2093457388034610  1.8989798549273682  7.9743479630687979
  4.0045220946664042  8.0613576908575553  4.1921066106596427
  4.0165233166517194  2.0634929274102514  6.1292410051442809
  5.8970891537986372  0.0841284328284890  6.1284719704907618
  6.1435660527470128  1.9611973433875680  3.9007903868968432
  3.9709645566876901  3.9799684822671013  0.1195408630040650
  3.9410864294651242  6.1036437836390087  2.1155763647865502
  6.1065472933608023  4.0562626976866589  2.1150478958051080
  5.9745655176551296  6.1494053037900480  7.9916552010395971
  4.1257161398326838  4.1247230188210899  4.1540049018443250
  4.0201859249700593  6.0181028151013338  6.0794079635009401
  5.9531072697362450  4.1157649768218478  6.1835624787680352
  6.0274215440467920  6.1298046138394078  4.0220628703665442
