 C  H 
 1.0000000000000000
    10.5835442180599983    0.0000000000000000    0.0000000000000000
     0.0000000000000000   10.5835442180599983    0.0000000000000000
     0.0000000000000000    0.0000000000000000   10.5835442180599983
 C   H  
   6   6
Cartesian
  5.2973443500000004  6.6902202600000003  5.3325319799999997
  4.0782523499999996  6.0200691800000001  5.3002320699999999
  4.0963253300000000  4.6103220399999998  5.3729362500000004
  5.2765053499999999  3.8780852399999999  5.2416680199999997
  6.4950268900000001  4.6236012100000003  5.3083930400000003
  6.5369911800000002  5.9997858199999996  5.3877378699999996
  5.3641090499999997  7.8149700099999997  5.1964641199999999
  3.0723653099999999  6.4229090400000004  5.2580831000000003
  3.1605844500000000  4.0320271300000003  5.3135821500000002
  5.2707039800000004  2.8136913200000002  5.2315490999999996
  7.3765562200000003  4.1250400799999998  5.2689412899999999
  7.4765029800000002  6.4705439800000004  5.2891452699999997
