Mo 
 1.0000000000000000
     9.5479710000000004    0.0000000000000000    0.0000000000000000
     0.0000000000000000    9.5479710000000004    0.0000000000000000
     0.0000000000000000    0.0000000000000000    9.5479710000000004
 Mo 
  54
Cartesian
  9.6131929989415799  9.4039042435331712  9.5067335996901310
  9.5865912059790617  9.4711416281934309  3.2291736326086200
  1.5492490959542100  1.6419679146598500  4.7420463912484800
  0.0358916823063900  9.5393633131840812  6.4543886764406402
  1.5473420797063799  1.5817798924686000  8.0068697605783505
  0.0079409520009900  3.1307956360115701  0.0229369952535900
  1.4367208153757400  4.7832601125902707  1.5620931220231202
  0.0285808963914000  3.0806874068050201  3.2328934266305103
  1.6335656047001401  4.7513114558677501  4.7802697835527796
  0.0765250779708000  3.1317962633723702  6.4432038012924000
  1.5636497277352499  4.8077313713038503  7.9343537801507402
  6.4288917746822412  6.4228858144841103  6.3471422379396598
  9.5745982860450916  6.3348302248148700  9.6302446248707696
 -0.0126336842677800  6.2391476204311198  3.2588422338563401
  1.6347144165708600  7.9563278625289797  4.7523143747415908
 -0.0089838768733200  6.3383932411529402  6.3959714209510503
  1.5690286726778100  7.8671014051760100  7.9581044534929504
  3.2109912404739003  9.4135228695185695  9.5377943905893598
  4.6474261895979003  1.6071947771561101  1.4918148995587801
  3.1986351157230901  9.5971691166108304  3.1542045874716904
  4.7736498888193504  1.6641093729697201  4.7026086879923996
  3.1599757630629304  0.0219083923377600  6.4312319823743405
  4.7688906071946899  1.6038071570453101  7.8809325959666108
  3.2229249629876700  3.0491012865413705  9.5674017893429699
  1.4861761543253100  1.5804795542981100  1.5658066143841500
  4.7075637985022700  4.9091036116064997  1.6022423400781201
  3.2248486881847498  3.2360794890735005  3.2757778519378804
  4.7656118339532902  4.8312698887304402  4.7297802083844900
  4.7909917730669402  4.7793597664367704  7.9101934988526299
  3.1633670114027104  6.3603302774037003  9.6069033685250407
  4.7496715918485002  7.9844211440414101  1.5269158189069501
  3.2077257389121900  6.2693291386809609  3.1521438488907600
  4.6793250059118003  8.0166245406302110  4.5818894895321600
  3.1770197506153202  6.3469795405138196  6.4623010800083405
  4.7388035183780399  8.0337682089998399  7.8990833843173203
  6.3979545345277495 -0.0539494734195600  0.0211742488475700
  7.9132520958827701  1.5840843907491600  1.4564617228167900
  6.4073640599482511  9.5142822255627308  3.2381634292239601
  7.9685954775886207  1.6087785945855899  4.8082534543581303
  1.5871547317836299  8.0090899502749799  1.5476354888552100
  6.4530122409412796 -0.0994189163954700  6.3622689929152507
  6.3736702250863502  3.1777102598780402  9.6593765346685796
  7.8659758903545303  4.7544941765208897  1.5593373866331000
  6.4051670718211504  3.1571418297904206  3.2629488161834401
  7.8529220953627501  4.8251708358150607  4.7463580639926608
  6.4687808105274902  3.0769076515252500  6.3892466894960407
  7.8903726748943104  4.8433259207527204  7.8742411869303899
  6.3955038568111799  6.4178542247265300  9.6460202599555203
  7.9630692074535299  7.9829331882407706  1.5916867716984902
  6.3325404304096500  6.4821093961246508  3.2762809345298702
  7.9530596875353901  7.9932321071599199  4.6694269108152300
  3.2916372227282999  3.1554995787784201  6.3521489074929303
  7.8947727618499499  1.6099856490794102  7.9591481422029604
  8.0168521642588502  8.0212665731709905  7.8878533472662502
