Al 
 1.0000000000000000
     8.0780951000000005    0.0000000000000000    0.0000000000000000
     0.0000000000000000    8.0780951000000005    0.0000000000000000
     0.0000000000000000    0.0000000000000000    8.0780951000000005
 Al 
  32
Cartesian
  0.0510592964795210  8.0534344528406230  0.0591394111032960
  0.0665847490141130  2.0239091304869370  2.0872800093655153
  2.0369685021494011  7.9252394457749764  1.9807787266909191
  1.8973524418885221  1.9369780833444541  7.9484116231312285
  7.9896189556077406  0.1335318813744120  3.9091481456492052
  8.0515242256923258  2.0191491937302133  6.0978280398527156
  1.9083159517772912  8.0764952332654456  5.8817471548037670
  1.9566961480168972  2.1125481292764130  4.0449851922413531
  0.0272377210581800  4.0614258121698246  0.0115362468313590
  7.9841252046921332  6.0556380878882390  1.8444337294788831
  1.8993594446161173  3.9870276872321386  2.0558187370652514
  2.1431713799910028  5.9986418761959248  0.0692201467595370
  0.0224806924156920  4.0685271847912832  4.1363831836312830
  0.0434355134479450  6.0302966996547847  6.1365898905996046
  2.0230160970736319  4.0887104669605350  6.0636543855607243
  1.9749105560674260  6.0858449128004244  3.9365258600954682
  4.1034719740415202  0.0927732062997540  0.0175919100421230
  3.9582612674572344  2.0979217687264513  2.0978983422506610
  6.0990195588799647  0.0662478116674920  2.0274064609795315
  6.2042008808152218  1.9232957289878780  8.0037856725465115
  4.1261249722256954  7.9644977762467120  4.0074352981023171
  4.0865842315492644  1.9641906815268730  6.0241048397606347
  6.0192824593287870  7.9038494577596863  6.1276907379136407
  6.0152110993983881  2.0599480169375184  3.8842312613132552
  4.0444466256410365  3.8701130937260340  8.0587552517401395
  4.2140417893132316  6.0886661067331476  1.7727361925140781
  6.1141133987933642  4.1534675469582734  2.0557947451228040
  5.9783685232663073  6.0149466225648132  7.9764427746901303
  3.9722376644754500  4.2035044797219383  4.0433126226508982
  3.9729968438529482  6.0695106006034694  6.1121694859884999
  6.0524145240385847  3.9030132363255099  6.0484237027163319
  6.0589896895452293  6.0307007659716865  3.9964021550337860
