Al 
 1.0000000000000000
     8.0780951000000005    0.0000000000000000    0.0000000000000000
     0.0000000000000000    8.0780951000000005    0.0000000000000000
     0.0000000000000000    0.0000000000000000    8.0780951000000005
 Al 
  32
Cartesian
  7.9548548733448907  0.0009670287644210  0.0469803431397270
  7.9637779371923507  2.0801995590103655  2.1003959276936790
  1.8571273249952189  8.0098799490518537  1.9966431360959072
  1.8650022560034540  1.9858236586427711  8.0149294047369626
  8.0293684342615563  7.9795597884654166  4.1045426447660747
  0.0574174035708290  1.8847784829606171  6.0419441818556709
  2.0738545384331193  8.0570285589125152  6.0831689630175978
  2.0739474365267694  1.9264287373914621  3.9811884361891035
  0.0708927971309430  3.9813874804523670  7.9551023053978041
  8.0680614596381925  5.9207413315657318  2.0000221224952859
  2.2079470396074710  4.0548355406253425  1.8715970512811921
  1.9216865724439580  6.1159664330283530  7.9544960443605479
  0.1836755257743480  4.0171689987930623  3.8853836823602212
  8.0645602516599499  6.0464902106541469  6.0699399513580339
  1.9855116826100092  4.0931804808841203  5.9237754640852920
  2.0271112066036263  6.1292577268011383  4.0424587679988280
  3.9892393081086164  0.0923654240591060  8.0657197006496535
  4.2365022864911737  1.9319601322302360  2.0159302343947654
  6.1188043486179344  8.0008690763106571  2.0674478819902604
  6.1114442346104223  2.1053315630188281  0.0121187582690200
  4.0761989517077533  7.9294997523497655  3.9256314179198042
  3.9381371977250650  2.1145752464608067  5.9206061850347087
  6.0235584374080702  0.0956852788023530  6.0089585730100366
  6.1182609351605572  2.0812369479831072  4.2508270109701014
  4.0166082174312203  3.8743553861487503  7.9436273713082537
  3.9255117005504223  6.0598411207687697  1.9724468986238282
  6.0943158456651378  4.0086939460998483  1.9850338632848441
  6.0456883789345204  5.9703988362025502  0.1439993962240410
  3.9922523567999653  4.1499143160475880  3.9897882954516124
  4.1732180047920666  6.1866659213435540  6.1042523065428922
  5.9186963617911665  4.1820279753081273  6.1799471273060309
  6.0685789538955861  5.9969303701870880  3.9368536691946261
