 C  H 
 1.0000000000000000
    10.5835442180599983    0.0000000000000000    0.0000000000000000
     0.0000000000000000   10.5835442180599983    0.0000000000000000
     0.0000000000000000    0.0000000000000000   10.5835442180599983
 C   H  
   6   6
Cartesian
  5.2939480899999998  6.6485628999999999  5.3406183399999998
  4.1051811200000001  5.9608733000000003  5.3447221100000002
  4.0375840199999997  4.6444888899999999  5.2248989300000002
  5.2513710199999997  3.9390983199999998  5.3170942999999999
  6.5449722299999999  4.5848770800000000  5.2782870900000001
  6.5011367699999996  5.9780091200000003  5.3072912900000002
  5.2160161599999997  7.8139841600000004  5.3068372600000000
  3.1794543800000001  6.4577267799999998  5.2696932500000004
  3.1723163099999998  4.0330690799999998  5.2314379700000000
  5.2760063300000004  2.9498824899999998  5.3889099900000001
  7.4572827300000002  4.0085369499999999  5.2376012999999997
  7.4659951099999997  6.4821551900000003  5.2538750800000003
