Al 
 1.0000000000000000
     8.0780951000000005    0.0000000000000000    0.0000000000000000
     0.0000000000000000    8.0780951000000005    0.0000000000000000
     0.0000000000000000    0.0000000000000000    8.0780951000000005
 Al 
  32
Cartesian
  0.0772118870229180  7.9978592588573489  8.0760774341868728
  0.0489816912007520  2.0113749157869241  2.0299203641746510
  2.1129401592316159  7.9335346800712641  1.9408298806500361
  1.9078826427561273  1.9879152390260630  7.9711060619432672
  7.9593931471720705  0.0393700505269680  3.9391984978593033
  0.0281839891181940  1.9796124921013321  6.0876017369227728
  1.8722799734409463  8.0415109421301683  5.8435039985432482
  1.9287259860760002  2.1248136665334001  4.0771996661287417
  0.0076842879638750  4.0793582139204121  0.0297144650158400
  7.9853739974136415  6.1018665219360591  1.8741621695992461
  1.8011508112473771  4.0133573496201276  2.0139750122567612
  2.1860749508766131  6.0558233186088826  0.0982639683201750
  8.0419301144849094  4.1662284330067925  4.1101638680223607
  0.0758818286647030  6.0444781187266390  6.1652780336329895
  2.0666993656982942  4.0340828335324908  6.1061849907955681
  1.9924640951578241  6.0556216085742349  3.9312633042616221
  4.1098902629413239  0.0435619356362600  8.0669697050854268
  3.8948736669217991  2.1577809381031572  2.1507613965850609
  6.1236281831068995  0.0274277986358830  2.0126322712892390
  6.1684081339223376  1.9198664968369772  8.0490238936969742
  4.1192494631432321  7.9566499876380119  4.0177679895447271
  4.1261964633673305  1.9485717654319743  6.0435908207608540
  6.0449493947947719  7.9843815226496551  6.1330967607164624
  6.0188834014308474  2.0426263191764904  3.8854150253692095
  4.0732500430914982  3.8799017254634589  8.0135255933704848
  4.1941478645104615  6.1014070398867704  1.8550021397363110
  6.1309778763717322  4.1235011261562642  1.9486412370498343
  5.9937059985279229  6.0052906331489302  7.9647423001853888
  3.9718762505006762  4.1649876375994328  4.0777498651860018
  3.9091453183159204  6.0260157131565393  6.0796088657260769
  6.0636255467612177  3.9356887271002550  6.0620802879495379
  6.0599551834715815  6.0795782497456488  4.0188006932223113
