 C  H 
 1.0000000000000000
    10.5835442180599983    0.0000000000000000    0.0000000000000000
     0.0000000000000000   10.5835442180599983    0.0000000000000000
     0.0000000000000000    0.0000000000000000   10.5835442180599983
 C   H  
   6   6
Cartesian
  5.2844138999999997  6.6532757499999997  5.2551429900000004
  4.1356871200000000  6.0051728400000002  5.2500258500000001
  4.0302199900000000  4.5417591899999996  5.2038059199999998
  5.2259599300000001  3.8158820499999999  5.1565922000000004
  6.4601387700000004  4.6037993999999998  5.2077043700000001
  6.4956698399999997  6.0308993199999996  5.2410303599999999
  5.3182701300000002  7.7472750200000000  5.3940318999999999
  3.2368632300000000  6.6327817800000002  5.3391493399999996
  3.1076265099999998  3.9605474599999999  5.3417439000000000
  5.3454280299999999  2.8082085200000000  5.4289401300000000
  7.4045359399999997  4.0941414199999997  5.3828921899999997
  7.4564508700000003  6.6075230899999999  5.3002061400000002
