Mo  S 
 1.0000000000000000
     9.5642410000000009    0.0000000000000000    0.0000000000000000
    -4.7821199999999999    8.2828759999999999    0.0000000000000000
    -0.0000000000000000    0.0000000000000000   18.1582730000000012
 Mo  S  
   9  18
Cartesian
  0.3048366144849701  0.1402131047293200  8.9500044863086909
  1.3832879710467003  2.8934386022665199  9.0639719814695106
  6.1479547608149110  0.1445688207314400  9.0939498375306709
  3.2631042953737706 -0.2752528907665600  9.0616963866971503
  0.2617248907952909  5.7057947232801194  9.1555897294737392
  4.9885168533026105  2.9153441587661999  9.0679778780760412
 -1.7360960975371298  2.4295724491522397  9.0274702210849114
  3.1501868035609304  5.1664874729277601  9.0751202531778610
 -3.4277079013141698  5.7279355962869598  9.0840982480972503
  4.7031920410227901  0.9493111860987999 10.6273083138217803
  1.5458404023082501  0.9452744436514400 10.6795315069697807
 -0.0509541873836799  1.9796786795623600  7.4034418586401705
 -0.1296517168187998  3.7368079942023602 10.6584508415131598
 -1.5989686614880698  4.5949077356453598  7.8054120927893607
 -1.5577662314849594  6.4198896250185191 10.6721178472693410
 -3.0670006773711500  7.3824447156975204  7.2891440644934802
  3.0964312678893307  1.8973497911289599  7.7717491968055814
  0.0762897573402706  7.3807077137715602  7.4944275171612702
  3.2455616973538302  3.5094361732152803 10.8046708795938518
  1.7374342850430411  6.3959917883545598 10.7511996683425597
  1.5812550001456607  4.6212979725264800  7.4570223826949205
  8.0606917221603105  0.8285593611615600 10.6012938640083316
  6.2611908852266902  1.8310859548413601  7.4064882721013809
  6.4084942283831507  3.7491648855917199 10.5878921506206805
  4.7611419484287900  4.5773467960939600  7.4401764080846302
  4.6899787073324610  6.4946641992248804 10.5979845187540800
  3.3075081255105307  7.2535387306533208  7.7721299757903903
