 C  H 
 1.0000000000000000
    10.5835442180599983    0.0000000000000000    0.0000000000000000
     0.0000000000000000   10.5835442180599983    0.0000000000000000
     0.0000000000000000    0.0000000000000000   10.5835442180599983
 C   H  
   6   6
Cartesian
  5.2464782400000001  6.6521739999999996  5.2757232199999997
  4.0658664199999999  5.9648151399999998  5.2744801900000002
  4.1190762500000000  4.5963062499999996  5.2316300599999996
  5.3209641699999999  3.8372221799999999  5.2710130199999998
  6.5569951299999998  4.5400250800000004  5.3128301899999997
  6.5087151199999997  6.0091490800000003  5.3506901700000000
  5.1970948999999997  7.8115287799999997  5.2720401499999996
  3.2355693900000002  6.6690812199999998  5.3686822000000003
  3.1615914699999998  4.0110680099999998  5.2557880600000004
  5.2293149100000003  2.7972725399999998  5.3530809899999996
  7.4291178100000002  4.0148262199999998  5.2681141800000004
  7.4304830800000001  6.5977968100000002  5.2671923600000001
