 C  H 
 1.0000000000000000
    10.5835442180599983    0.0000000000000000    0.0000000000000000
     0.0000000000000000   10.5835442180599983    0.0000000000000000
     0.0000000000000000    0.0000000000000000   10.5835442180599983
 C   H  
   6   6
Cartesian
  5.2736382600000002  6.6419540000000001  5.2556578800000002
  4.1057404599999998  6.0084532099999999  5.4027310399999999
  4.1462161599999998  4.6158403000000003  5.1631481800000003
  5.2390549499999999  3.8921714100000000  5.2854002900000001
  6.4340381600000001  4.5696473600000003  5.2652682700000000
  6.5119288099999997  6.0178852599999999  5.1428230099999999
  5.3499419100000001  7.6997781900000000  5.2683851199999996
  3.1557821599999998  6.5871852200000003  5.5638221100000003
  3.1905364100000000  4.0353620000000001  5.0923723200000000
  5.3671899200000004  2.7640412699999999  5.3174229200000003
  7.3373129700000002  4.0004410699999999  5.5747369200000003
  7.3898861900000004  6.6685070599999996  5.1694961900000003
