Mo 
 1.0000000000000000
     9.5479710000000004    0.0000000000000000    0.0000000000000000
     0.0000000000000000    9.5479710000000004    0.0000000000000000
     0.0000000000000000    0.0000000000000000    9.5479710000000004
 Mo 
  54
Cartesian
  9.6137101170509407  9.5183282737536903  9.5508790255274700
  9.6088391241655788  9.4979694216295201  3.1335793469566200
  1.4599377571390502  1.5673869945440699  4.7315241452876400
  0.1065713969512800  9.4994921320446011  6.3943948599795304
  1.5628665076741202  1.6232446299679799  7.9187851450772699
  0.0368961288555900  3.1408932837020398 -0.0080011996980000
  1.6004341453301401  4.7935560716384105  1.5548356137863100
 -0.0130880722076700  3.1611051925525198  3.2284889476082106
  1.5196808438817000  4.7875769412387896  4.7861572534308001
  0.0869807745737700  3.1808235667820104  6.4242764764602605
  1.5388119224149801  4.7581463709080998  8.0048737572408015
  6.3173281256139004  6.4802523157651502  6.3469592988152996
  9.5468418569495395  6.2158815066171602  9.5886247328426393
  0.0361789807537800  6.3909954958643995  3.2379148955388302
  1.4181608964676802  7.9754261915217306  4.6413744946186801
  0.0426691185613200  6.2007623900183706  6.3973516756388102
  1.5352773590304902  7.9421243963490902  7.9362958374521408
  3.2836989441591902  9.4770626114496608  9.5582322044337005
  4.6289777909911196  1.5917335567563902  1.7516585382571199
  3.1664318146140000  9.4746329392692914  3.2233104145769405
  4.7116265556424803  1.6158718777212002  4.7760562639504798
  3.2403713020380001 -0.0559121543383200  6.4396688559890700
  4.7223912245870103  1.5353474411376300  7.9108721686313102
  3.3132206976129304  3.1901247227316598  9.6980930796750293
  1.5637770021886801  1.6025287792081200  1.6172836407132600
  4.7733710880661500  4.8217858891361400  1.5076578478390801
  3.1010113133553303  3.1507083114509098  3.3079414334876103
  4.6731349608327903  4.8863553797395802  4.7038444818789307
  4.6928972557288802  4.7930283552812405  7.8773922083198107
  3.1850452976393702  6.3516842077443609  9.4944197724508506
  4.7135249787164097  7.9942385587830298  1.5082166905817103
  3.2379426801344402  6.3409957316084107  3.2032222474306198
  4.7727207757613401  8.0834243417795406  4.7640523638498609
  3.2756008325555404  6.3275370071665202  6.3832803533775602
  4.7718014971134606  7.9408942357654499  7.8899611573442101
  6.4175826804312903 -0.0349272417556800 -0.0451837676835900
  7.9463882337585607  1.6256541559295401  1.4628241087723501
  6.4550373655903801  9.4502403558367511  3.2011377344018999
  8.0264968562050800  1.5542553835886401  4.7438460883022699
  1.4824401287527202  7.9936407603187201  1.5376139384936101
  6.4307473273663804  0.0742025340250500  6.4749710465659200
  6.4096532814752099  3.1672999161373201  9.4890556268633404
  7.9112306949423603  4.8016057750290901  1.5729371346066601
  6.3784673166761703  3.2867034996734703  3.3187787624914500
  7.9068603976562404  4.7298985077451805  4.7011664669728503
  6.4038868798694706  3.1142094736686303  6.4417256799018903
  7.8649256135445311  4.7677903944963607  7.9755400988157605
  6.5267073957873905  6.3341928022709109  9.4805342537052599
  7.9207019957352305  7.9787018139326999  1.5439757515709100
  6.3526125569646901  6.3206837600218506  3.1513864083513301
  7.9126717702053906  8.0529181925157012  4.7934547676661001
  3.2414043925002005  3.1121294481862800  6.4668196572840904
  7.9594245559634107  1.6435249977705302  7.9209004980523199
  7.9772396376537600  8.0187503008936503  7.9296784251911703
