Mo 
 1.0000000000000000
     9.5479710000000004    0.0000000000000000    0.0000000000000000
     0.0000000000000000    9.5479710000000004    0.0000000000000000
     0.0000000000000000    0.0000000000000000    9.5479710000000004
 Mo 
  54
Cartesian
  9.5804353426362301  9.4987176006370806  9.6288895768264506
  9.6035508849475200  9.5797295566199097  3.2353004701196100
  1.4637135977507099  1.5451731626140202  4.6269216354362701
 -0.0019863598868400  9.6377918185477203  6.3936396154734307
  1.6097077076436002  1.5846899230699800  7.8308352514470005
  0.0837541332540300  3.2277750458165402  0.0455402889207300
  1.5688137478506001  4.8601176509112900  1.5028983752550000
 -0.0240028352563200  3.2912463287955602  3.1810913873685602
  1.6881929840607000  4.6568077394633702  4.7226927495111903
 -0.0176934405398100  3.2302763277794102  6.3801802226735704
  1.5112659306002700  4.8560456322392103  7.9443957631702808
  6.3527520528210006  6.3718059837486001  6.4533210223234203
  9.5813322790319688  6.4919931692647204  9.6229195169992821
  0.0483740312338200  6.3635574916016999  3.3176889570815100
  1.6060361308752600  7.8731674221117300  4.7533023033009600
  0.0298947926807100  6.4004300369689204  6.5003165175042605
  1.5750920161816502  7.9885940847669605  7.8956727535964104
  3.1952233392456604  9.5428203470440511  9.6124301160586789
  4.7277640588281304  1.5407062398613802  1.4883955801842601
  3.2508546877568705  9.5902728081169517  3.2064154708518604
  4.7105441976499201  1.6131614951934301  4.7092552215649199
  3.2414953846638301  0.0411522324085500  6.3702750620784609
  4.7817768352954202  1.5125241622186500  7.8606925206016802
  3.2472050713218299  3.1958121626172304  9.5026905113701794
  1.5225049427440802  1.5446070634134299  1.5801388826928302
  4.6929050850651004  4.6788314712908106  1.5801369730986301
  3.1358905288168799  3.2303235902358600  3.1209864325250103
  4.6959459228691802  4.6957774966607406  4.7142333426849001
  4.7151317112762898  4.7248062883717505  7.9281400561036497
  3.1930927095170101  6.3258274429589703  9.5647890825585300
  4.7240875171148700  7.8171235057736101  1.5454118618890202
  3.3310224121438798  6.3535144583053507  3.1378687729283703
  4.7832197246729402  7.9164797874793207  4.7511423613013406
  3.2110400306057101  6.3790832562853801  6.4278415933519506
  4.7627188942199998  7.9272815980310405  7.9008460352436307
  6.4351460776060803  0.0515168413681800 -0.0032782958428500
  7.9576036624140007  1.4782194481721702  1.6348081776460801
  6.3873700357959908  9.7150818799550400  3.2170517195864399
  7.8839262667939503  1.5138932457803400  4.8064220580406198
  1.5890623209097199  7.9176803493528602  1.5851774424692400
  6.3390236936780706  0.0942754244177700  6.4267374659855099
  6.4710053922907802  3.1829993584134901  9.5630619500843395
  7.9551400949365805  4.6703606068993198  1.5283553664946199
  6.2964723970788903  3.3580064103855300  3.1932275268675303
  7.9741291951410904  4.7016733687532408  4.7114595616296899
  6.3589171776956999  3.2923545617895305  6.3752216748941404
  7.8636450396740107  4.6345023424914302  7.8603729500123105
  6.4390451825233503  6.3350867787956400  9.6197230472679021
  7.8425430689669104  7.8915457386113710  1.6478617816784400
  6.3486465207707106  6.4516795351491005  3.2184938451262806
  7.8856079509261807  7.8281336530525509  4.8179824548882904
  3.1734037430382003  3.1864870412603703  6.4372422391594206
  8.0734779339497109  1.5069651425430302  7.8690733476266406
  7.9143001766594407  7.9489958801183702  8.0983500164858704
