 C  H 
 1.0000000000000000
    10.5835442180599983    0.0000000000000000    0.0000000000000000
     0.0000000000000000   10.5835442180599983    0.0000000000000000
     0.0000000000000000    0.0000000000000000   10.5835442180599983
 C   H  
   6   6
Cartesian
  5.2753903700000002  6.6559920200000002  5.3008459099999996
  4.0777491000000001  5.9755431500000000  5.2434799300000003
  4.0201820300000000  4.5246122599999996  5.2985122400000000
  5.2777801300000000  3.8659882500000000  5.2478980300000000
  6.5336261400000000  4.6143670700000001  5.2374129099999998
  6.5168829700000002  6.0330848200000000  5.3167640900000004
  5.3275582500000001  7.7636117799999997  5.3253320000000004
  3.1375361300000000  6.6452999899999998  5.1781942799999996
  3.1636991800000001  3.9533644099999998  5.4388489800000004
  5.2271061200000002  2.8120323500000000  5.3044432600000002
  7.4474929500000000  3.9971040800000002  5.2317078500000003
  7.4962629900000000  6.6602661799999998  5.3778253200000004
