Mo 
 1.0000000000000000
     9.5479710000000004    0.0000000000000000    0.0000000000000000
     0.0000000000000000    9.5479710000000004    0.0000000000000000
     0.0000000000000000    0.0000000000000000    9.5479710000000004
 Mo 
  54
Cartesian
  9.5470241277159307  9.5455789468253709  9.6100377764449192
  9.4349041183774194  9.6070432463001900  3.2387250408781800
  1.6165062449144401  1.6388254864443301  4.6626851839718402
 -0.1096971162175500  9.6392349943643705  6.4134399112941001
  1.6776797131926000  1.6180489105889102  7.8764565071618104
 -0.1237266183658200  3.2225080985738099  0.0181436273724600
  1.6451105338347900  4.8592971937632603  1.5928653732387301
  0.0385476413994600  3.1830681038046902  3.2032190011204800
  1.7015818173548700  4.7433088239741004  4.7651703357742505
  0.0064854593017500  3.1839294262686000  6.3235060447697409
  1.6782836223583502  4.7605318359827402  7.9537548753039005
  6.4217686063974009  6.3898108791024306  6.3599447303347203
  9.5254179286603193  6.3811305322272007  9.6410843408673603
 -0.0462802566732300  6.4066229464392306  3.2830958943108302
  1.5533126169321001  7.9017232073394004  4.6799972785499104
  0.0197954263554600  6.4101864401758499  6.5420263514192101
  1.5568784021817599  7.9506968511520197  7.9778826935006109
  3.1719300137143498  9.6418730987516721  9.5659839156494701
  4.9348992693774898  1.4951498148696600  1.5392226761274002
  3.1291367715300300  9.4447923790638608  3.1807807918719302
  4.7392897010613604  1.5137727503863201  4.7688306459368102
  3.1020867013290601 -0.0113460448987200  6.3900270451658701
  4.7435898207606302  1.5135242167011900  7.8487672003023903
  3.0871325736691499  3.3174192269007601  9.6008404069400406
  1.6526520942088501  1.5793230085708800  1.5579535991960700
  4.8059932586630101  4.6711138463315098  1.6066950363539700
  3.2090696158304399  3.1543295704120804  3.2340628621185901
  4.9270600987473596  4.7044365515606401  4.8145895833934409
  4.6917415693190403  4.8022473032005797  7.8537837997455009
  3.1954908733930805  6.4150475986510802  9.6430293580397706
  4.8220413928401005  7.8172574638067402  1.4662664387569802
  3.1836834705356405  6.4422087117547804  3.2198809743531602
  4.8290385279077404  7.9599730868973602  4.7609175740111400
  3.2075258043994501  6.3858851353460704  6.3172282538372411
  4.7628708024386102  7.9833507210125996  7.8447052069998602
  6.3329021075511305  0.0459634549954500  0.0301786538585400
  8.0230619736378301  1.4957229795687901  1.5215857595759101
  6.3964051852735802  9.5564782421610008  3.3227528189810700
  7.9547824279429200  1.5809813001741602  4.6837108663906504
  1.5492208339600502  7.9859831920970104  1.5234251761890600
  6.3186991187697901  0.0521414696310000  6.4379293111525806
  6.2111392203808808  3.1733868431295300  9.5460378223116304
  7.9705796414421304  4.7468272512876002  1.4955422364777602
  6.2516467737875105  3.1839470900149505  3.2207374273518603
  8.0663455041330003  4.7864177220796797  4.7235629515881303
  6.3086069134227900  3.1280800975794603  6.3653174690961309
  7.9632121405794010  4.6307794931188200  7.9327836163197905
  6.3282505270393505  6.3179716588593005  9.4860541266997807
  7.8961709667231901  7.8107211138195600  1.5779970818381102
  6.3388825746666901  6.4048003342550404  3.2537573664205799
  8.0424832150097991  7.9202492309504100  4.8973314407620503
  3.1898724653378401  3.2479853315119502  6.4085167864870796
  7.9550659072019103  1.5769952132410801  7.8581230661258701
  7.9339697607571207  7.9301453209730699  8.0036961104976605
