 C  H 
 1.0000000000000000
    10.5835442180599983    0.0000000000000000    0.0000000000000000
     0.0000000000000000   10.5835442180599983    0.0000000000000000
     0.0000000000000000    0.0000000000000000   10.5835442180599983
 C   H  
   6   6
Cartesian
  5.2950673000000004  6.6803129999999999  5.3012803699999997
  4.0377369500000002  5.9869929600000003  5.2922499600000004
  4.0913341399999998  4.6493070500000000  5.2867629200000001
  5.2906809499999996  3.9171321699999999  5.2920303500000001
  6.5014357599999997  4.5838599999999996  5.3105023400000002
  6.5116721599999998  6.0037451199999996  5.2718581100000002
  5.2871248700000004  7.7891191800000001  5.3060001000000003
  3.1292931400000001  6.5802148999999996  5.2914953499999999
  3.2340030199999998  4.0363452100000003  5.2905539399999997
  5.3724382999999998  2.7817052100000002  5.2790131200000001
  7.3596749399999997  3.9528071800000002  5.3128439500000004
  7.3908027299999999  6.5397227899999999  5.2666742900000001
