 C  H 
 1.0000000000000000
    10.5835442180599983    0.0000000000000000    0.0000000000000000
     0.0000000000000000   10.5835442180599983    0.0000000000000000
     0.0000000000000000    0.0000000000000000   10.5835442180599983
 C   H  
   6   6
Cartesian
  5.2854701400000001  6.6991448299999998  5.3247509600000003
  4.0817682000000000  5.9938648499999996  5.2608850900000004
  4.0325589500000003  4.5813543499999998  5.3102732000000001
  5.3179838400000001  3.8423414400000002  5.3727409799999997
  6.5340738199999997  4.5610212399999996  5.2505439100000002
  6.5015929200000002  5.9794310199999998  5.3336601899999998
  5.2722100200000002  7.8119171900000000  5.3780063000000000
  3.1669012400000001  6.6200921099999999  5.1296713699999996
  3.1368503200000002  4.0285684300000000  5.2936792600000002
  5.2613931000000003  2.7689483300000002  5.4317209599999998
  7.5146460700000004  4.0534762700000000  5.0541583100000000
  7.3958151000000001  6.5611052499999998  5.3611768800000004
