Mo 
 1.0000000000000000
     9.5479710000000004    0.0000000000000000    0.0000000000000000
     0.0000000000000000    9.5479710000000004    0.0000000000000000
     0.0000000000000000    0.0000000000000000    9.5479710000000004
 Mo 
  54
Cartesian
  9.5219621360365796  9.5973093763048212  9.6808655801200221
  3.2141990722907701  6.3980157370218604  9.6125628328555806
  4.7557879265913900  7.9791988813029606  1.5166466896573201
  3.2051150372016601  6.3071136107583907  3.2498366830888501
  4.8280632981498002  7.9833894857748611  4.6773825666915601
  3.3045578235246302  6.2514728097558905  6.3744559276199402
  4.8025698336609599  7.9468978089708298  7.9101645685005000
  6.4095034738102195 -0.0305654421637500  0.0712076219614800
  7.9894986595395006  1.6311632397168301  1.6535142759901500
  6.3879951414573606  9.5979873777255289  3.1588343031298800
  7.8485300287027506  1.6359563211588299  4.6713858680252995
  1.5790578614162101  7.9922350125483899  1.5257596550985602
  6.3920739391888501  0.0161199349190100  6.3349985555436001
  6.4540551658136103  3.1758658783199700  9.5384385921927297
  7.9315012283347803  4.8389205824130306  1.5653404824399302
  6.3613190652804610  3.2014503349724404  3.2919243302162706
  7.8366940774120204  4.8115150412517309  4.7321671056547805
  6.2744576403441910  3.3169123251203700  6.4477711686999601
  8.0289558406564208  4.7144741425135201  7.8918039157472109
  6.3861479909877001  6.3390182513345996  9.5098685804882699
  7.8996021255817501  7.9832948653822502  1.4803505552993699
  6.3931237386003001  6.2975643030424502  3.1494348985586402
  7.9217800571408405  8.0325033892814695  4.7289413236524300
  3.1254888737297701  3.1591596025018500  6.4173619313417705
  4.6724723316453902  4.8004631693395199  7.9704413868220501
  4.7312461083721198  4.8193209849427801  4.6987720268054698
  3.1354746192001199  3.1004961048401700  3.3051607778932799
  4.6181312959351200  4.7936380887093000  1.5189937718885402
  9.5038331170597505  9.5000926994205006  3.1846645245558900
  1.6348203035692501  1.4573980923327601  4.6927510762928701
  0.0267440577304200  9.4497388963998308  6.3913443787247406
  1.6115391039611100  1.5205280353485300  7.9237437883364095
  0.0509767126487100  3.0803920880619899  0.1552716823541700
  1.6107803267057401  4.7517976385510696  1.5267771823680301
 -0.0317472900141300  3.2720254993348799  3.1415231633489102
  1.5316308934258800  4.7526922834337704  4.7579265766156800
 -0.0101768003700600  3.1671383644680002  6.4003707440690105
  1.5977229034849800  4.7089488271755302  7.9105887848520302
  6.4154439349272909  6.3565034506269011  6.4354363359244804
  8.0046930141497707  1.5756127625199901  7.9105964232288297
  9.5219329192453213  6.2715436950747003  9.5508542962825800
  1.6058556742233601  7.9607721565903509  4.7490507827740807
 -0.0427787292684000  6.2458625174759996  6.4096241601636601
  1.6051895122866902  7.9336542957952805  7.8793224261371702
  3.3031827247412102  9.5271586192533295  9.6179563861937698
  4.7588813737156803  1.6679703814827000  1.5932480559164102
  3.2193138248757602  9.5060684880302713  3.2041966178711703
  4.7258382330774298  1.6679236919045102  4.7871756400176597
  3.2203873987350002  0.0303610201046400  6.4658468145189003
  4.7857315094039103  1.6993786230466201  7.9444326183383405
  3.1926970415987701  3.1909346771115903  9.7067414408474111
  1.5613134347112601  1.5282293332774199  1.6038716058495601
  0.0075875815942800  6.4484338933670706  3.1778843193893702
  7.9493648137178097  7.8854305496250010  7.8390545268026406
