Mo 
 1.0000000000000000
     9.5479710000000004    0.0000000000000000    0.0000000000000000
     0.0000000000000000    9.5479710000000004    0.0000000000000000
     0.0000000000000000    0.0000000000000000    9.5479710000000004
 Mo 
  54
Cartesian
  9.6166399119522890  9.4622447333359201  9.5529634430764787
  3.2694438234561898  6.3221028749515806  9.6496435239905995
  4.6968776138793604  8.0076680664336610  1.6332720045918903
  3.2435239465824903  6.3505121943041098  3.1428660854700601
  4.6989793132558804  7.9957624149546307  4.6674606016674902
  3.1907687333756103  6.3300462139453195  6.3111452415131399
  4.6733323173933599  7.9538735565834298  7.9352571136870500
  6.3780855887955896 -0.1145005094682300  0.0561732913451700
  7.9292731138222212  1.5932554078540802  1.5414055332574199
  6.5043819480763503  9.5775820269825900  3.2066512102558504
  7.8379260521101504  1.5566162148981002  4.7682458327130606
  1.6678966711465799  8.0557788601070097  1.5527882423647803
  6.2917612372280711 -0.0896594578378200  6.4752376259162396
  6.5174180793217804  3.1541708831340602  9.5783541713973595
  7.8970106152929302  4.7964051861848107  1.5589676891959801
  6.3630053324387701  3.1836644700733503  3.2250191194671003
  7.9758873585210299  4.7160407735951999  4.6710688753881007
  6.4440380075186701  3.1120909698631500  6.3662558436860106
  7.7950456369506007  4.8633542221208703  7.8818788953724201
  6.3982643661867007  6.3629873822532907  9.6215176838970606
  7.9709455196908499  8.0025525500109911  1.6447586911034400
  6.4592827754158204  6.3055722817998605  3.2989528781085000
  7.8289097121354301  7.8951327203566501  4.7532602922285605
  3.2744803781586902  3.1085461901496902  6.3859190306431204
  4.6986399783665398  4.8210383784865503  7.8350596557362397
  4.7835455014434602  4.7382238610586302  4.6774858757377800
  3.1720110759881401  3.1391389395105000  3.2134338978948302
  4.7390715299240105  4.8034884439508705  1.4887544884141501
  9.6084646527429598  9.6519675001319989  3.1999050913458000
  1.5965053462230598  1.5707502673288201  4.7318066697495302
  0.0175019082415500  9.5710395662939707  6.4010899927244402
  1.5993503551419301  1.6555592604189300  7.9106307959244297
  0.0528309286169100  3.1448259019975202 -0.0136577996372400
  1.6286187054453301  4.7607138203100003  1.6300824093996300
  0.0082825784033700  3.1355014489986304  3.2818875985807803
  1.6079221415868901  4.7657660336849403  4.7073618589156201
 -0.0126562174793400  3.2142773656529702  6.4239844040273697
  1.4451584528281503  4.7553226539645603  7.9080303105428706
  6.4049818411837505  6.3375366926745302  6.4432329226039506
  7.8516719795197201  1.6785927856593301  7.9557851558573400
  9.5786319218737521  6.2818361213735701  9.6247284755849396
  1.5244072804861202  7.9121323098438907  4.6810349520381900
  0.0710986796123700  6.3394815188875198  6.4056839034913802
  1.5154050715084801  8.0407680174993601  7.9620257097029405
  3.2032199559175800  9.6168948427779899  9.5924982491976305
  4.6963715714163596  1.5519163216530600  1.5592414295245502
  3.2062905833911803  9.5093556634861507  3.1592731278770403
  4.6941519545979897  1.5935815665434401  4.7853188460972902
  3.2071947762448803  0.0280013345517000  6.4239869819795405
  4.8096228243589501  1.5426275780657102  8.0079189871115410
  3.2548188143566499  3.2583314174078404  9.5861012995870496
  1.5208330930219800  1.6456098927180902  1.4407776527739302
  0.1071460893257700  6.2860833453135001  3.2285691505646099
  7.8558509354670001  7.9953187207422598  7.9135457914707308
