Mo 
 1.0000000000000000
     9.5479710000000004    0.0000000000000000    0.0000000000000000
     0.0000000000000000    9.5479710000000004    0.0000000000000000
     0.0000000000000000    0.0000000000000000    9.5479710000000004
 Mo 
  54
Cartesian
  9.5737896683811012  9.5634772868228417  9.4737008663402698
  3.2707455938223302  6.3204102106527005  9.6031257137988906
  4.7499956499842400  7.9548382835732703  1.6915728703149899
  3.0922756837280105  6.3621811515820497  3.0880374348808202
  4.6869992830827600  7.9799828652017704  4.8640630634879098
  3.1473209777792404  6.4320748772542204  6.2761715966183997
  4.8646677364913407  7.9198810611886499  8.0321360788371017
  6.3656146974333607  0.1083653652224700 -0.0412605063996900
  7.9011135693910504  1.5859229480449202  1.7227109997793200
  6.3062962089610801  9.5995853261520896  3.0898600470650104
  7.9792905418245601  1.4734261757707501  4.8117824799194402
  1.6616786505125400  7.8910770287149798  1.5924453579944402
  6.3650251102241100  0.1114759032148500  6.2602454855106906
  6.3698899924080301  3.1671106753521001  9.4191290561709309
  8.0069384104898411  4.8123245182331109  1.6281044517272700
  6.2534219325558302  3.2830634312094302  3.1179055887224401
  7.8991945226997604  4.7126808426003004  4.7562640839051600
  6.3981454939477498  3.1865286704139302  6.3118653494859602
  7.9435061787122097  4.6461248011506004  8.0240181074537702
  6.4127965690081208  6.4375222811488495  9.5432368295390706
  7.9770860108003703  7.9982314247755202  1.6614943746722399
  6.2991807745327506  6.4394722632661798  3.0502163940744600
  8.0179963931034894  7.8550202619900009  4.7119932932085904
  3.2277831615918902  3.2292159301201497  6.3762530467215601
  4.8255689862057594  4.6744185900540298  7.9864209665673602
  4.8314712554388306  4.7496937431412203  4.7378043232128899
  3.1754650544973901  3.1394952697882204  3.1216055229646504
  4.8445972330913696  4.7382774251759407  1.6790408719383600
  9.5913547841906706  9.6432350213351103  3.0961141590294305
  1.6494466493847300  1.6212804213738601  4.8292184116813806
  0.0143080164623400  9.4687270418072398  6.1925094103251004
  1.5918112772403301  1.5402615908519099  7.9884516290396403
 -0.0313455113944500  3.1484270147398803 -0.1061036418519900
  1.5354279305331602  4.5446376032771099  1.6074111341789701
 -0.0835953504963000  3.1539286511097906  3.2125956815207402
  1.5358366791716702  4.6778611109980801  4.8959788751901909
  0.0153413933636700  3.1786009900926300  6.4358772612252597
  1.6700701712650199  4.8274605347405704  7.9597138594847099
  6.3539140408917003  6.4178881200235809  6.3531612788580603
  7.9652455719632700  1.4711953878263102  8.0379288328428000
  9.5542375243267212  6.4467024643059307  9.4794786300314993
  1.5457276132899902  7.9471732679341809  4.8040851921383698
 -0.1058923452537600  6.3919936407527400  6.3294767729548811
  1.5347598590022902  7.8988089756307804  7.9450777747388104
  3.1998214511198402  9.5886863172555916  9.4739720287166715
  4.7989584091099200  1.6443677016909901  1.6533698151889200
  3.2441032219830603  9.4866041853090906  3.1944587377279805
  4.8435450466871703  1.6097966947333200  4.8782369309576996
  3.1596871278996002  0.1027429470194100  6.3761461094463607
  4.7641334261236503  1.5612930975330301  8.0388699763442713
  3.1256910042758399  3.2578011230985000  9.5548320764808903
  1.5138564860919901  1.5705790722087900  1.5923316416598301
 -0.0078895839170100  6.4169902288307403  3.2642904015886502
  7.9437117465278400  7.8585597903194104  7.9672139816646297
