 C  H 
 1.0000000000000000
    10.5835442180599983    0.0000000000000000    0.0000000000000000
     0.0000000000000000   10.5835442180599983    0.0000000000000000
     0.0000000000000000    0.0000000000000000   10.5835442180599983
 C   H  
   6   6
Cartesian
  5.2929669900000000  6.6814861900000002  5.2942470699999999
  4.0628691600000000  6.0006801300000001  5.2813901799999998
  4.1150809600000002  4.6076772100000003  5.2030920600000004
  5.2705240599999996  3.8675572599999999  5.4031051699999999
  6.4569970400000001  4.5606000199999999  5.2828660599999999
  6.4864198300000000  6.0045288299999999  5.2322338500000001
  5.3480141200000002  7.8292371599999999  5.3573011800000003
  3.1312225200000001  6.5807588900000002  5.3354493400000003
  3.1590731200000000  4.0661622299999998  5.1816461000000000
  5.3941710699999996  2.7362700499999999  5.4307372200000001
  7.4296760900000001  4.0631893200000002  5.1993153300000001
  7.3542508700000004  6.5031169499999999  5.2998822800000003
