Al 
 1.0000000000000000
     8.0780951000000005    0.0000000000000000    0.0000000000000000
     0.0000000000000000    8.0780951000000005    0.0000000000000000
     0.0000000000000000    0.0000000000000000    8.0780951000000005
 Al 
  32
Cartesian
  8.0591131113530690  7.9103360873440360  0.0553730800438720
  0.0647156393698750  2.1997795199947139  1.9881837549071872
  1.9118287922124770  0.0286249723297030  1.9933543012378441
  1.8943542568921572  1.9667831845873160  8.0208068651698206
  8.0740426428121346  8.0611989562888411  4.1097067286206510
  0.0038405687533930  1.9017688980415941  6.1720935224688596
  1.9965240649741332  7.9916048745071242  5.9391372544131569
  2.0815016671595341  1.8791362566570711  3.9700161883229503
  8.0435976756564020  4.2272863916963379  7.9801149151606889
  8.0688579598150536  6.0671274817680185  1.9618445603669801
  2.0591347143228500  4.2008471903387932  1.8961681123659111
  2.1497652058973293  6.0347087128555517  7.9573882447492013
  0.0264083430342630  4.1024074426692430  4.0438566015749320
  0.0408800080630600  6.0657000823638487  6.1644488171709746
  1.8982823921964340  3.9803064697660853  6.0786946677036102
  2.0378156519825383  6.0655629163090499  3.8729186161542644
  3.9608806705743604  0.1670094462116360  7.9911769778096780
  3.9748549672878499  2.0477901606882143  2.0351418832853891
  6.1098349972855512  7.9545234291029372  1.9481092944874991
  6.1124005195083599  1.9478920745102601  0.0430189260836380
  4.0778461560795947  7.9618904094912848  4.0988694793582958
  4.0154610471460694  2.0675905411497260  5.9532430625148756
  5.9821577961158159  0.1362075888143850  6.1044961034530107
  6.1149922955402438  2.0635234626097292  4.0608427352655054
  4.0912163728415063  3.8904526062545202  8.0376620529388241
  4.0651089388497184  5.9824025623973451  2.0339808994576174
  6.0755078591866605  3.8876618667403231  1.8739363868412011
  5.8415719605381815  6.0947431768959275  0.0004833124298330
  4.1330023392700310  4.1137100709903098  4.0271385798607273
  3.9992764220513171  5.9853419388613824  6.0466506416228327
  6.1014040509915839  4.0779740323250273  6.0968751477547194
  6.1075382332867196  6.0021524547644827  4.0400253226309042
