Al 
 1.0000000000000000
     8.0780951000000005    0.0000000000000000    0.0000000000000000
     0.0000000000000000    8.0780951000000005    0.0000000000000000
     0.0000000000000000    0.0000000000000000    8.0780951000000005
 Al 
  32
Cartesian
  0.0655871850502140  8.0022023659069124  0.0766843066319370
  0.0941924468278730  2.1503942471627662  2.1209240637427502
  2.0197453571485933  0.0462338463715360  2.0743742830718532
  1.8398450483382791  2.0174742007112281  8.0404804195382624
  8.0237070628726226  0.0414845727003440  3.9634298750450672
  7.9367366754070021  1.9451552966713310  6.0765950900061698
  2.1158278358870133  7.9918289608651989  5.9873863431692902
  1.9011352522619502  2.0995831905456681  4.1698026669647374
  0.0020187159654900  4.1043755089784550  7.9526596510014658
  7.8633767472515688  6.0787141359128016  1.8380173793219041
  2.0962231876697741  4.1631125501648203  1.9668164663391281
  2.2116472110680259  6.1174196015558930  0.1949179722869200
  8.0372151727178913  4.0438301054230044  4.0818686435346390
  0.0567890893339510  6.0256299841155148  6.0353877575296568
  1.9895817500451931  3.9730369112046442  5.9900387049144248
  1.9806315437981969  6.0864695111135561  4.0273540226570441
  4.0141420557781409  0.0565836633755580  7.9666090671820475
  4.0311231002688022  1.9673908189007381  2.0151170933419991
  5.9351426363862076  0.0031431868034100  1.8471021666332661
  6.1789171701807799  1.8959216496844100  0.0282112122986810
  4.0980422016391049  8.0413004269718638  3.8403473328063096
  4.0489971781727681  1.9641925394887463  5.8959843127318106
  6.1627225282481044  0.0017132024088080  6.0030886252056215
  6.1093894903407868  2.0156563869708752  3.9031510486279162
  4.0091199040544714  3.8330779358067701  0.0583785353258270
  4.1189780391478727  6.0131826897187777  2.0067754099988862
  6.1700271457422788  4.0767706384979796  2.0518830083515800
  5.9633651580180285  6.1108533219538579  7.9655075381342115
  3.9433543546644492  3.9656307520550622  4.0520249289971995
  4.0274452243507231  5.9629193279494599  6.0283512520118512
  5.9813712319959285  4.0561691533454010  6.1637869788394317
  6.1473193780733268  6.0564044567703759  4.0946058607645153
