 C  H 
 1.0000000000000000
    10.5835442180599983    0.0000000000000000    0.0000000000000000
     0.0000000000000000   10.5835442180599983    0.0000000000000000
     0.0000000000000000    0.0000000000000000   10.5835442180599983
 C   H  
   6   6
Cartesian
  5.2436630199999996  6.6785159199999997  5.2820400100000002
  4.1218570799999998  5.9806052599999999  5.3224723200000001
  4.1152841699999998  4.6281023899999996  5.2694842199999998
  5.2907910100000004  3.8703354399999998  5.3174202700000004
  6.4498981300000002  4.6027780900000002  5.3416348899999999
  6.5539248499999996  6.0038022700000004  5.2619042900000004
  5.2457723200000004  7.6912817200000001  5.1641202799999997
  3.1685993699999999  6.4477697799999998  5.4749071100000002
  3.1724131500000001  4.1208849799999996  5.2385580500000000
  5.1911098999999998  2.7855031100000001  5.1224242899999997
  7.4264697999999996  4.1490054599999997  5.4853832300000001
  7.5214819799999999  6.5426798300000000  5.2209168699999999
