 C  H 
 1.0000000000000000
    10.5835442180599983    0.0000000000000000    0.0000000000000000
     0.0000000000000000   10.5835442180599983    0.0000000000000000
     0.0000000000000000    0.0000000000000000   10.5835442180599983
 C   H  
   6   6
Cartesian
  5.2723899400000001  6.6459641100000004  5.3017111200000002
  4.1437634299999999  5.9184052400000002  5.4044699200000004
  4.0596342999999999  4.5736749300000001  5.2887822599999996
  5.3212520400000001  3.9918033099999999  5.3066123500000000
  6.5967040600000004  4.6286590900000002  5.3691161200000002
  6.5803879399999996  6.0164898200000003  5.2383633100000004
  5.2426242500000004  7.8196061400000003  5.1929048699999996
  3.0385080300000000  6.3439378000000000  5.4064072400000001
  3.0668343500000002  4.1603933499999997  5.1025923100000004
  5.1983892599999999  2.8466722899999999  5.3337998899999999
  7.3937327799999997  3.9340780099999999  5.2819542799999999
  7.5870449200000003  6.6215801499999998  5.2745511000000000
