Mo  S 
 1.0000000000000000
     9.5521989999999999    0.0000000000000000    0.0000000000000000
    -4.7760999999999996    8.2724469999999997    0.0000000000000000
     0.0000000000000000    0.0000000000000000   18.1271130000000014
 Mo  S  
   9  18
Cartesian
  0.1235759413554600 -0.0428573970707800  9.0983161455331523
  1.5764851047405897  2.8208782860674799  9.0522459065725212
  6.3342106917704397 -0.0191405396951900  9.0918199320473398
  3.2178177939444899  0.1437719026056700  9.0517972605257704
 -0.0090352259537897  5.3984439692676895  9.1554747395158795
  4.6889064257221795  2.8450081039973099  8.9580945880061709
 -1.7247111520216798  2.5507447555368099  9.0155024297926509
  3.1971913036723207  5.6275684155607903  9.0279475992228004
 -3.0540973126713999  5.4971487387599396  9.1360886985180318
  4.7723252232897799  0.9861143147274899 10.5749672661859808
  1.7733146767450401  0.9738705140962000 10.5727048212124508
  1.5507715520858498  1.0446953999845798  7.4962946484919808
 -0.1633561876766196  3.5025213009098795 10.6035959595602716
 -0.1388161617229798  3.5542458511954900  7.5045720321011711
 -1.5043370991477099  6.5334564565578095 10.6432794727976123
 -1.4368530557035297  6.4958011877829795  7.5042930558321004
  4.6971805542930198  1.0363363404644901  7.4663733106896606
  1.6273408891729602  6.4370233010117595  7.5265279539090306
  3.0867238608921195  3.8271666172938699 10.6600066288606214
  1.5392284486633703  6.3667389368103597 10.6656972734447120
  3.0942220523852493  3.7966561782684702  7.5104676943332906
  8.1294292898063105  0.7467787734799399 10.6719843000465016
  7.8838442575324104  0.7789700082868000  7.4077321001346599
  6.2741162092163396  3.5144557947478399 10.5275552583210903
  6.2863945976701903  3.6491436405783397  7.5294493194401113
  4.8099443653385414  6.4630356797053796 10.6271941978059310
  4.9657544386221790  6.4599239987663299  7.6056078469137907
