 C  H 
 1.0000000000000000
    10.5835442180599983    0.0000000000000000    0.0000000000000000
     0.0000000000000000   10.5835442180599983    0.0000000000000000
     0.0000000000000000    0.0000000000000000   10.5835442180599983
 C   H  
   6   6
Cartesian
  5.2782939700000000  6.7200531500000000  5.3217399399999996
  4.0577811300000004  6.0672019400000003  5.3272682600000003
  4.0803711700000003  4.6111332699999998  5.2734662800000001
  5.2497559699999998  3.9130061800000000  5.3068822400000002
  6.4948739599999996  4.6015223499999998  5.3671941500000004
  6.5149969800000003  6.0055803100000000  5.3047380100000003
  5.2523452300000004  7.7990370200000001  5.3168561700000003
  3.1296524500000000  6.5880049200000004  5.3144859799999997
  3.2513415100000000  3.8757854400000000  5.2188890600000004
  5.2573343100000001  2.8412090700000001  5.2570469700000002
  7.4392060400000002  3.9327143200000001  5.3596549600000003
  7.4953120499999999  6.5460178800000000  5.1330411700000003
