 C  H 
 1.0000000000000000
    10.5835442180599983    0.0000000000000000    0.0000000000000000
     0.0000000000000000   10.5835442180599983    0.0000000000000000
     0.0000000000000000    0.0000000000000000   10.5835442180599983
 C   H  
   6   6
Cartesian
  5.2728661900000002  6.6732712400000000  5.2697138900000002
  4.1033353500000000  5.9301392200000000  5.2412653200000001
  4.0768002799999996  4.5939270700000003  5.2651613700000004
  5.2970189000000003  3.9523653200000002  5.3098191699999999
  6.5575179600000002  4.6636361099999997  5.2596510500000004
  6.5900290200000002  6.0743209599999997  5.3043570000000004
  5.2423638900000000  7.7309880000000000  5.4789489700000003
  3.1068883100000000  6.4140760099999996  5.2125553399999998
  3.0620283700000002  4.0671782500000004  5.2821521999999996
  5.1996550600000004  2.8959894899999998  5.4159710600000004
  7.4401548499999999  3.9862771100000001  5.2420918900000002
  7.5526081899999999  6.5190970500000001  5.2195780500000000
