 C  H 
 1.0000000000000000
    10.5835442180599983    0.0000000000000000    0.0000000000000000
     0.0000000000000000   10.5835442180599983    0.0000000000000000
     0.0000000000000000    0.0000000000000000   10.5835442180599983
 C   H  
   6   6
Cartesian
  5.2957700399999998  6.6662437700000003  5.2795470599999996
  4.0874012899999999  5.9377101500000000  5.3187739100000000
  4.0479521900000002  4.5103721099999996  5.2759549999999997
  5.2441673299999998  3.8865901799999998  5.1884201000000001
  6.5112810999999997  4.5976731199999996  5.3418052899999999
  6.5182858200000000  6.0145720899999997  5.2880059499999996
  5.2779261899999996  7.7396368799999999  5.1683330600000001
  3.1885922099999999  6.5604691800000001  5.4594572499999998
  3.0681932800000000  4.0936154199999999  5.2307161700000000
  5.4046509000000000  2.9156182600000000  5.2804900500000000
  7.3899952100000004  3.9494453200000001  5.3849623299999996
  7.4670487000000003  6.6293177800000000  5.2847991399999996
