Mo 
 1.0000000000000000
     9.5479710000000004    0.0000000000000000    0.0000000000000000
     0.0000000000000000    9.5479710000000004    0.0000000000000000
     0.0000000000000000    0.0000000000000000    9.5479710000000004
 Mo 
  54
Cartesian
  9.5130534016950303  9.5205849366995405  9.6327696812814292
  3.1934163857339097  6.4025224748135701  9.5820271803613490
  4.7118715565783402  7.9555660299228910  1.5660273634736701
  3.2284381524024899  6.4160411605133403  3.2029692261991198
  4.7460390662815506  7.9193251783170302  4.7375497743060304
  3.1269375873695999  6.3212074662311997  6.4561096982133908
  4.8237393085230300  7.8710988541945799  7.9733856946393198
  6.3224226365003702  0.0994796414910300 -0.0212285768025600
  7.9844099729153397  1.5601982316984599  1.6940773985880000
  6.4069264764373202  9.5618929919948101  3.2532227755242897
  7.9751745070061704  1.5038231917260600  4.8173411176762206
  1.6078062292189501  7.9438476141551702  1.4949540814641602
  6.4210431515608200  0.0453480882645000  6.3143544100459499
  6.4394406594821705  3.2848425046458605  9.5949009960997813
  8.0429798049815098  4.7450869426134306  1.4684274310334100
  6.2807952015751498  3.2548789665739499  3.1596405338011202
  7.8429316713866104  4.8020769673979409  4.7271606270609308
  6.3729779971888503  3.2108895545827503  6.4137714168472204
  8.0049680911942804  4.6874643647501699  7.9753007311827906
  6.4350710305540204  6.3896273670998109  9.5458669136307304
  7.9075996970507703  7.9120500063338701  1.5156015687516600
  6.3723301673565000  6.3643826272555204  3.1514005393484101
  7.8695594348302507  7.8644361845510709  4.6447110330846302
  3.0988217726456098  3.1420529802597001  6.4223535151008599
  4.7192039209077903  4.7228445622500903  8.0196951681038104
  4.7076871582875901  4.6452420912316503  4.7876273545256698
  3.1345327118609703  3.1642144893086699  3.1570675465760405
  4.7741880124649105  4.6906015415816400  1.5914853095103900
  9.5595167884520400  9.5856995209673705  3.2464715007099003
  1.5291787835136601  1.5313772038364100  4.7326031614903501
 -0.0042433092718200  9.6108208055466307  6.4221177756968695
  1.5767180356429500  1.5574118473215302  7.9285814588029799
  0.1031715554376000  3.2149866844185602  0.0968281699443300
  1.5785849504125800  4.7748666822435899  1.5672100706414400
 -0.0489875838502800  3.3326904426775803  3.2984766253150206
  1.5573494035911901  4.8137555681265898  4.7104110989341805
 -0.0328463569559400  3.1882448227214706  6.3509743161005110
  1.5512458631294401  4.6646909262398104  7.8430917908602806
  6.3965917526269198  6.4313888555378700  6.3896084621172298
  7.9058000954766907  1.5462850238369701  7.9386790110137406
  9.6686070356328315  6.4392434938810208  9.4779722466468304
  1.5755807768171401  7.9461389362357506  4.7693424171824104
  0.0128317091863200  6.4730012046689103  6.3879106419140106
  1.5623931192719402  7.8745591343646906  7.9190720616058199
  3.2133322120036802  9.6350863054851601  9.6042955312058105
  4.8285268521418505  1.5356513530545601  1.4966919076658700
  3.2248597638311098  9.5290030008114002  3.2958413853190200
  4.7749438298492697  1.6028200878033301  4.7225944054098905
  3.2890278577337102 -0.0477414781550700  6.5121053018182504
  4.8430810152965700  1.5407704977062100  7.9449577567433405
  3.1569840018297901  3.1568564409372302  9.5364447848885110
  1.5877116649320602  1.4413500536353800  1.5850593340679702
 -0.0019391929101000  6.4853426255443800  3.1481378066982901
  7.8977355927309603  7.9815546521877900  7.8405911772553800
