Mo 
 1.0000000000000000
     9.5479710000000004    0.0000000000000000    0.0000000000000000
     0.0000000000000000    9.5479710000000004    0.0000000000000000
     0.0000000000000000    0.0000000000000000    9.5479710000000004
 Mo 
  54
Cartesian
  9.5652199824897597  9.4916352976681200  9.5047916378684416
  3.2072787983896802  6.2703639477779403  9.4974243279651311
  4.7343786066978000  7.8416074632886206  1.6458525066612002
  3.1546131451507802  6.2869526880730504  3.1375921682085002
  4.7144781526613402  8.0123936437206904  4.7995682380176898
  3.1909008772942502  6.3638979722475604  6.3913445696841604
  4.8135092304747902  8.1251477338133107  8.0132762581599302
  6.3910223256629104 -0.0329014487486100 -0.0630323627521500
  7.9713937014495908  1.6217881824716402  1.6792438618018202
  6.3831372292922701  9.5648650844076908  3.1919188819622701
  7.9214022439283704  1.6281000596606101  4.8220111257720299
  1.5845047879122900  8.0259450789609907  1.5399297988596599
  6.3719911189062897  0.0087210212316900  6.3173186731226103
  6.4337402343560406  3.1216932688181402  9.5353377931307701
  8.0243816941894508  4.8903337328161509  1.5902596364731201
  6.3359180251509004  3.0456750926277301  3.0859836663187199
  7.8844330730946304  4.8129975547089003  4.7517777787713902
  6.4087996928678095  3.1312546069775400  6.3762037791912007
  7.9453286954166904  4.8439805296444804  7.8804084123587108
  6.3776310098962803  6.3192152820820509  9.5451353480927104
  7.9961779426525501  8.0834167988824497  1.6156360428375001
  6.3677289046518908  6.2919529604857507  3.1991639778367800
  7.8259570021036806  7.9984442490491112  4.8300849855293402
  3.2025093959157602  3.1672055821838403  6.4432564106126105
  4.8111898373594704  4.8993647766662107  7.9175040938082004
  4.6933272963427202  4.8344332270024495  4.7765643114873901
  3.1440302695740905  3.2105210029021505  3.2425281886869004
  4.6754604646495501  4.7933741827908598  1.5790329412119000
  9.5614888263823818  9.5574506075276418  3.2100840877491903
  1.5364702825272301  1.5474180815555401  4.7558833108216803
  0.0511587924556800  9.5588277113849696  6.3130387951218596
  1.5886306571408102  1.5974415247796101  8.0529739526663402
  0.0301533517353900  3.1064474506441799 -0.1045706196282300
  1.4972890377722099  4.8851469885298204  1.6455242474182201
 -0.0660481848722100  3.1216739819167203  3.1441701473492398
  1.5175864964428503  4.6811124815627103  4.7387473763085604
  0.0898410602462400  3.1452393291418201  6.3305501558547004
  1.5752508944190899  4.7669991541395902  7.9702502364426300
  6.3222896332643401  6.3172547971966209  6.3419853788025611
  8.0259393501783904  1.5423685416124799  8.0698360513711798
  9.6893540127781517  6.2876719367284810  9.5117527770854107
  1.5861402598648802  7.9265375246510104  4.7175969019087800
 -0.0306696105273600  6.2535960875468701  6.3619405427128504
  1.5172156532492100  7.9243764368948710  7.8938914841266499
  3.3108391472064005  9.4477105254405913  9.6014491855710009
  4.6820888570771704  1.6205596450430702  1.6157086074171001
  3.2972548669458601  9.5290691682504303  3.1596147542794202
  4.7256858474602703  1.6262665627894801  4.8085837186750204
  3.2101316366447703  0.0027509614045200  6.3064478307405603
  4.8099324650584796  1.6737877692535801  8.0106716671508416
  3.1334000360612402  3.0204221415283805  9.6100781643622497
  1.5785980311328500  1.6306073568452100  1.6552570671367801
  0.1095648768192000  6.3946690777066504  3.1907717887263303
  7.8900918690672004  8.0296966677263111  7.8862858568671799
