Mo 
 1.0000000000000000
     9.5479710000000004    0.0000000000000000    0.0000000000000000
     0.0000000000000000    9.5479710000000004    0.0000000000000000
     0.0000000000000000    0.0000000000000000    9.5479710000000004
 Mo 
  54
Cartesian
  9.6164961195090299  9.6752277896836496  9.5660797772783095
  3.2614359401784903  6.4061655986283297  9.5558503675880395
  4.7528340708031207  8.0204177585490903  1.5696153000160500
  3.2318329334915399  6.4414237730588706  3.1434123248909702
  4.6886641627860302  7.9202112300258296  4.7944819383862800
  3.2031091994539800  6.3090976791321900  6.2220031882238107
  4.7159831993300703  7.8894876734623196  7.9588568336077508
  6.4326279912142503 -0.0521861541352800 -0.0201850790519700
  7.9253609281846806  1.5413524465386601  1.7112105641895299
  6.4170123801234604  9.5348444494692011  3.0439159744506901
  7.8272467420263601  1.6226793900847802  4.7672211444653403
  1.4928292759978199  8.0102950951746017  1.6004980212561302
  6.4867329056016905  0.1521811951008900  6.3308539722919202
  6.4077780599708101  3.2265489908604303  9.5233161338040908
  7.8902190480409198  4.7074521827212807  1.4764942252921800
  6.3041270054295904  3.1550842420399201  3.2367277963043999
  7.8761546957985002  4.7113242668806201  4.6767215606592298
  6.4131902318524512  3.2724596455762498  6.3386901830510398
  7.8028051775025906  4.7297671276642204  8.0134405787408394
  6.3018298590867010  6.3791641275997506  9.5180599757685904
  7.9337748866690099  7.8577171818786606  1.5853068174762901
  6.4396592125383600  6.3991959617171705  3.1633391313273900
  7.9741816135018810  7.9244865250005008  4.7318068607089501
  3.2513873690589601  3.1170934383091802  6.3891719288831101
  4.6800872204367305  4.6941877594892407  7.9432094277735299
  4.7900840474639699  4.6245712114152004  4.7824743145769704
  3.2279871062524501  3.1962216750934198  3.2080452140218503
  4.7872723609638905  4.7085358774297807  1.6795213258390800
  9.5948616584592603  9.6376028642016305  3.2277232003340099
  1.5418619262712201  1.6383729126189301  4.7895617734502700
  0.0460204563823200  9.5559920594776795  6.3612296007921909
  1.5335725688084401  1.5203903536067103  7.9143452430825603
  0.0787338101022300  3.1926281052481502 -0.0795915043371600
  1.5352892939942402  4.6933858254049499  1.5783774730027500
  0.0386922931601100  3.2771307994285799  3.1800286981962600
  1.5016170375467999  4.7145612200090401  4.7655092887447497
 -0.1263599487676200  3.2939795309740205  6.3833303847455998
  1.5801679085246700  4.7208930524573995  7.9417307335047598
  6.4962491773379707  6.5303533839934502  6.3325804364081408
  7.8873372794337007  1.5708136658562599  8.0610013138048799
  9.4879963749606002  6.3840027528634202  9.4896029165610614
  1.4603663655572401  7.9391219413884295  4.8693111057480598
  0.0047124965667600  6.3432931643904311  6.3768580061641202
  1.6065706262918400  7.8099235718019306  8.0327201282231702
  3.2590695710458504  9.5923887339702603  9.4321075176715201
  4.7567178034870805  1.5004409184790199  1.6050779919854099
  3.2440283658904203  9.5413185466854600  3.1936412404509604
  4.7567442513667499  1.5280584245965201  4.8534951782256908
  3.2446400089126803 -0.0438721629073200  6.3959723757481504
  4.7642655700422898  1.5222798970676101  8.0612912856841508
  3.3693714557465397  3.2250985585858203  9.5725473818742888
  1.5650777222780101  1.6019779567611301  1.5883848923672701
  0.0926529377057400  6.4725139717087803  3.1568137615068603
  7.9171610352101709  7.9098239923749309  8.0508501974768105
