 C  H 
 1.0000000000000000
    10.5835442180599983    0.0000000000000000    0.0000000000000000
     0.0000000000000000   10.5835442180599983    0.0000000000000000
     0.0000000000000000    0.0000000000000000   10.5835442180599983
 C   H  
   6   6
Cartesian
  5.3366071799999997  6.6832250599999998  5.2943560800000000
  4.0452263999999998  6.0228531800000003  5.3807860700000001
  4.0516521900000004  4.6185830200000000  5.2883202899999997
  5.2481271600000001  3.8759060900000000  5.2930378999999999
  6.5169411799999999  4.6149449300000001  5.3504911999999996
  6.5421411300000001  6.0157061100000000  5.2637722800000004
  5.2477408600000004  7.6942567600000000  5.3025763200000000
  3.1261180799999999  6.5556880599999996  5.3780523400000000
  3.1143915099999999  4.0187050900000001  5.1159291700000002
  5.2728661900000002  2.7905091299999998  5.3098191699999999
  7.5098242099999997  4.0892253600000004  5.3879902800000004
  7.4896286900000000  6.5216609099999996  5.1361352699999996
