Al 
 1.0000000000000000
     8.0780951000000005    0.0000000000000000    0.0000000000000000
     0.0000000000000000    8.0780951000000005    0.0000000000000000
     0.0000000000000000    0.0000000000000000    8.0780951000000005
 Al 
  32
Cartesian
  7.9641101084628625  8.0048270197858535  8.0332785554137605
  8.0715472384547944  2.0736051676373819  2.0923318076982018
  1.8975838793131370  0.0151505481410010  1.9115795829786419
  1.9189934970995202  2.0209138536048084  8.0386601823693784
  8.0355613443080678  8.0407474813622688  4.0207799073027628
  0.1373533858233690  2.0418326463329151  5.9456701714824289
  1.8935101767351581  0.0055595066097220  5.9978513538094385
  2.2347965274151451  1.8465196551956051  3.9519585760983125
  0.0009786612213650  4.0898494783696355  0.0155839379431160
  0.1656110471688750  5.9159185472291291  2.1564604118971604
  2.0730297649234091  3.9513269498424433  2.0142835147086302
  1.9676929396574780  6.0618629064103970  7.9674188962158228
  0.1327384508736900  4.1489052811886467  4.1731481292694523
  7.9875431275098938  6.1244109505220887  6.1098256266952351
  2.0200353607626829  4.0806538595935011  6.1388709023129913
  2.0691225518854415  6.1145079329580483  3.9461141550744134
  4.0122127643254082  0.1278913514708370  8.0546960089523907
  4.0358916805872838  2.0063236829208941  2.0025857059752714
  6.2755574413858559  8.0719593828667957  2.0290266845137381
  6.1284068610442555  2.0478350748969705  7.9852469289777188
  4.0963103388306159  7.9484100075122077  4.1383384057692876
  3.9970642357081823  1.9833204185331832  6.0369568467218810
  5.8944325914440512  0.0305143579926420  6.0891036163637642
  5.9371679763896799  2.0814729091409778  4.1267095839680819
  4.0378653207821147  3.9324353550796816  7.9826766406788003
  4.0839936672316455  6.0794840591567825  1.9965068586315702
  5.9173879527278199  3.9089968429279822  1.8489460726207920
  5.9386467524786850  5.9647772898224591  8.0462540764490846
  4.1291327701552296  4.1964758907373305  3.9246796567551221
  3.9479039378247696  6.0714507167036365  6.0474821199514750
  6.1010430409215637  4.0258870405868841  5.9399701867989183
  6.0704918468152664  5.9721238326302037  3.9889521318278116
