Mo 
 1.0000000000000000
     9.5479710000000004    0.0000000000000000    0.0000000000000000
     0.0000000000000000    9.5479710000000004    0.0000000000000000
     0.0000000000000000    0.0000000000000000    9.5479710000000004
 Mo 
  54
Cartesian
  9.5371269874164604  9.5673848894342992  9.6179871306603903
  9.6018261394660804  9.5074072090441799  3.1786873037504702
  1.6537556486970302  1.6741053347690402  4.7122846972835104
 -0.0079232882546400  9.5400400733685604  6.4691261606385604
  1.5136039422590402  1.7432205188858700  7.8921415320017712
 -0.0187842007468500  3.1888726018147202  0.0263417062324800
  1.6263047546734799  4.7834457251465103  1.5072614160831601
 -0.0077789229331200  3.1633303471940701  3.1291203490199102
  1.6582813869510302  4.8562717281924899  4.7532160851228298
  0.0583774404505200  3.2245998680604901  6.3986457121484399
  1.5700746529008600  4.9099953920979003  7.8782652747880499
  6.3866248166594399  6.3179377635622496  6.4426024700788194
  9.5277022807220710  6.2186170957883702  9.5958176967954909
 -0.0466807940566800  6.2995093202148595  3.1830048962366702
  1.4387736291407400  8.1302323148099411  4.6890937260013201
  0.0052322881080000  6.3190979375184604  6.4519475466950702
  1.5914963851567501  7.9621260588781499  7.9562513832812707
  3.1394532587158199  9.4626868998729297  9.5179536113716505
  4.6903183487617799  1.6142359283700602  1.4944678033011300
  3.1898461129378801  9.5265600569513413  3.1666181910079199
  4.7594923483799700  1.6057602899930699  4.6887416923105496
  3.1528349310317401 -0.0165401411227200  6.4846148791947611
  4.7759262205854602  1.5440591053577402  7.9366530270472513
  3.2735946128890201  3.1865505352675201  9.5415908548183808
  1.6032373341360300  1.6498992232101299  1.5288132871837801
  4.8255708957999595  4.8205791210814501  1.5789064305961500
  3.2000482154310901  3.1177309563328501  3.1572445659583805
  4.8222699712658397  4.8135960215311799  4.7338606292710503
  4.7225452333592397  4.7983385548325996  7.9380171456640198
  3.2476726354617003  6.3162908340444597  9.6109124660682301
  4.7109670772855106  8.0317259934826506  1.5950905278802801
  3.2745890340686703  6.2703740686272003  3.2587664229666005
  4.6836883331790906  7.9529986760006999  4.8029376215038804
  3.2025781413069603  6.2708183357178306  6.3548614860540305
  4.7094642266501108  7.9210666327477206  7.9651095133765208
  6.2608177908924301 -0.0690332625256500  0.0548033484660900
  8.0015731191458102  1.6216464905820001  1.5489618929865301
  6.4544512156506899  9.4335240546490802  3.2432273866032300
  7.9790493600771004  1.5493070521381800  4.7159794756213804
  1.5791484716610003  8.0144543823016203  1.5720845007963600
  6.3874490929958707 -0.1074204025326000  6.3056049358606803
  6.3000528862038907  3.1279186413898499  9.5208772955715606
  7.9213751276907303  4.8139624726581598  1.5490529806298701
  6.3956103166878302  3.0778666497324902  3.2457583627559106
  7.9593960075301204  4.7488837887612902  4.7872974721276202
  6.3642066581499899  3.0913344447468303  6.3918149982153309
  7.9345621168779603  4.8306634970922309  7.9399691328552606
  6.4369140753961496  6.3581974516417210  9.5852665204825200
  7.9803289791505199  8.0005423201966508  1.5787396275427801
  6.4251905037240897  6.2748893041131000  3.2932137836998203
  7.9115213351796001  7.9709453287314300  4.7749023916551305
  3.2350434387402904  3.1108253863071003  6.3357506492192703
  7.8452714016801606  1.6819182484789201  8.0081007804793796
  7.9260501007314605  8.0241308689912803  7.9562798362348506
