 C  H 
 1.0000000000000000
    10.5835442180599983    0.0000000000000000    0.0000000000000000
     0.0000000000000000   10.5835442180599983    0.0000000000000000
     0.0000000000000000    0.0000000000000000   10.5835442180599983
 C   H  
   6   6
Cartesian
  5.3099361199999997  6.7018468100000002  5.3857412800000004
  4.0317842400000004  6.0122198899999999  5.3623738699999999
  4.0111553200000003  4.6075613200000003  5.3210499000000002
  5.2893151400000002  3.9259360900000000  5.3103531100000003
  6.5008769500000003  4.6017371999999996  5.2958552399999999
  6.5203131000000001  5.9736762099999998  5.2976269299999998
  5.3478389599999998  7.8011341500000002  5.2290249199999996
  3.1096125099999998  6.5249899700000000  5.2723761800000002
  3.1112841800000002  3.9382093000000000  5.1901240499999997
  5.3360991699999998  2.8279674699999999  5.3243688999999996
  7.4162207000000002  4.1519603800000002  5.2562119300000001
  7.5168278700000002  6.4340270500000001  5.2561579500000004
