 C  H 
 1.0000000000000000
    10.5835442180599983    0.0000000000000000    0.0000000000000000
     0.0000000000000000   10.5835442180599983    0.0000000000000000
     0.0000000000000000    0.0000000000000000   10.5835442180599983
 C   H  
   6   6
Cartesian
  5.3158120999999996  6.6695172600000001  5.3558491200000002
  4.1104649499999999  6.0101349400000004  5.3427350499999999
  4.1149179800000004  4.6141633400000002  5.2449240499999998
  5.2781500299999999  3.8485862599999998  5.3190681299999998
  6.4819541000000003  4.5923644100000001  5.2345892200000002
  6.5063301200000003  5.9877999500000003  5.2158119000000003
  5.1800691499999996  7.7008116700000002  5.4654401300000002
  3.1549423600000002  6.5469518799999999  5.2455601200000004
  3.1761962300000000  4.1717442000000000  5.1578791600000002
  5.3165810000000002  2.7635221500000000  5.4394712900000002
  7.4412857099999998  4.0471801200000002  5.3524502099999998
  7.4245610600000003  6.5484891400000000  5.1274869299999999
