 C  H 
 1.0000000000000000
    10.5835442180599983    0.0000000000000000    0.0000000000000000
     0.0000000000000000   10.5835442180599983    0.0000000000000000
     0.0000000000000000    0.0000000000000000   10.5835442180599983
 C   H  
   6   6
Cartesian
  5.2891860199999998  6.6164042700000003  5.2338171500000001
  4.0782190099999998  5.9795871199999997  5.2623133400000004
  4.0428583299999996  4.5851792400000004  5.2642152099999997
  5.2999060900000003  3.8965990399999999  5.2240120299999999
  6.4859028199999997  4.5871774199999997  5.2891950200000002
  6.5155912499999999  5.9686749600000004  5.2489018800000000
  5.2034831199999996  7.6352630200000000  5.3138520299999996
  3.2899280599999998  6.6477088100000001  5.4363390899999997
  3.0335073000000001  4.0583722199999999  5.2448700700000002
  5.3335998599999996  2.7988341399999999  5.3097080400000003
  7.4613240599999999  4.1888863699999996  5.4303048799999996
  7.4677588500000001  6.5385792399999998  5.2437349900000001
