 C  H 
 1.0000000000000000
    10.5835442180599983    0.0000000000000000    0.0000000000000000
     0.0000000000000000   10.5835442180599983    0.0000000000000000
     0.0000000000000000    0.0000000000000000   10.5835442180599983
 C   H  
   6   6
Cartesian
  5.2771530599999998  6.7430882399999996  5.3592548999999998
  4.0640741000000000  6.0147371900000000  5.3181701099999996
  4.0900101299999996  4.6067733799999999  5.3267909400000004
  5.3275910599999996  3.8883343500000001  5.2173041800000002
  6.5407488599999999  4.6083963600000004  5.2680242200000000
  6.5164702099999996  6.0276962100000002  5.2759079099999999
  5.3615753499999999  7.8279517900000002  5.2912741499999996
  3.0326542700000001  6.4684791300000004  5.2013013299999997
  3.1324750799999999  4.0661982200000004  5.3439389300000002
  5.2759142600000004  2.7776130800000001  5.2979370200000000
  7.4824990900000001  3.9868904299999999  5.3020841900000004
  7.4000987900000004  6.4851058799999999  5.2992768999999997
