 C  H 
 1.0000000000000000
    10.5835442180599983    0.0000000000000000    0.0000000000000000
     0.0000000000000000   10.5835442180599983    0.0000000000000000
     0.0000000000000000    0.0000000000000000   10.5835442180599983
 C   H  
   6   6
Cartesian
  5.2812922799999997  6.6653759199999998  5.3684419500000002
  4.0635502099999998  5.9784499200000001  5.4210209999999996
  4.0845104000000001  4.5483220500000003  5.2961452299999996
  5.3467409200000002  3.9378282900000001  5.2716221000000001
  6.5825247600000001  4.5925453899999997  5.3250970400000002
  6.5163701999999999  6.0229209199999998  5.2943973599999996
  5.2685269400000001  7.7064019000000004  5.2606781900000001
  3.1118821500000000  6.5752469800000002  5.2726582300000002
  3.1136263199999998  4.1215882500000003  5.1963799799999997
  5.3061720799999996  2.8119683200000001  5.2715469600000002
  7.4060070500000004  3.9062872099999999  5.3695860299999998
  7.4200619999999997  6.6343290899999996  5.1536933700000001
