 C  H 
 1.0000000000000000
    10.5835442180599983    0.0000000000000000    0.0000000000000000
     0.0000000000000000   10.5835442180599983    0.0000000000000000
     0.0000000000000000    0.0000000000000000   10.5835442180599983
 C   H  
   6   6
Cartesian
  5.2954102000000001  6.6854777700000003  5.3598502300000002
  4.0570349900000000  5.9878772099999997  5.3999142300000003
  4.0746703399999999  4.5957913599999998  5.1989972900000003
  5.2807911499999998  3.9155599900000002  5.2822252199999999
  6.4846327900000000  4.6066633100000001  5.3933413200000002
  6.4728797699999996  5.9942447999999997  5.2342150900000002
  5.4467908700000001  7.7257718999999998  5.2780928800000000
  3.1119043799999999  6.5587599399999998  5.3848189299999998
  3.1878651200000001  3.9432952200000000  5.1238948700000000
  5.2691238499999997  2.8507300199999999  5.3539763599999999
  7.4250727699999999  4.0363012899999999  5.3556951300000000
  7.3950880100000003  6.6007919499999996  5.1362453400000003
