 C  H 
 1.0000000000000000
    10.5835442180599983    0.0000000000000000    0.0000000000000000
     0.0000000000000000   10.5835442180599983    0.0000000000000000
     0.0000000000000000    0.0000000000000000   10.5835442180599983
 C   H  
   6   6
Cartesian
  5.2838143400000002  6.7248951200000002  5.2985439899999998
  4.1365502100000002  5.9838829799999997  5.3122909600000003
  4.1007243799999999  4.5581620999999997  5.2215010800000003
  5.2551170599999999  3.8619051199999999  5.3398589699999999
  6.5395989600000002  4.5410559199999998  5.3099562300000001
  6.4950681699999997  5.9796971900000004  5.3039410699999996
  5.1563641300000000  7.7742461199999999  5.2955583700000002
  3.2534132400000000  6.5843498900000004  5.3922692100000003
  3.1357734499999999  4.0579880299999997  5.1497562900000000
  5.2084542200000001  2.7943673599999999  5.3812840199999998
  7.5010567999999997  4.0979832500000004  5.2839969099999999
  7.4353308800000004  6.5427301000000000  5.2123082099999998
