Mo 
 1.0000000000000000
     9.5479710000000004    0.0000000000000000    0.0000000000000000
     0.0000000000000000    9.5479710000000004    0.0000000000000000
     0.0000000000000000    0.0000000000000000    9.5479710000000004
 Mo 
  54
Cartesian
  9.5495858483352301  9.6954945993673807  9.5308182610579202
  9.5478632034074096  9.5748992380910103  3.2557750436523003
  1.4881389307237802  1.5784782040968000  4.8020326648125007
  0.0281254581747000  9.5898253901958910  6.3686363438157310
  1.5559757370034200  1.5478629215244302  7.9189087913017202
  0.1080232614215400  3.2389598254850700 -0.0511920193947600
  1.5638628384479702  4.7071429239405900  1.5704377622379901
  0.0977468757139500  3.2598903146330103  3.1427647814977502
  1.5132816027580800  4.7387311447578604  4.7762825508631810
 -0.0811929855129900  3.2833508251365302  6.3706644283358402
  1.5570213353076301  4.6842198687246608  8.0030647986551404
  6.4974790514824798  6.4697451555984911  6.3933102104739303
  9.4698445363330812  6.3936857321733598  9.4619443541682600
  0.0563130736406100  6.4381731663319197  3.1193391210883803
  1.4776972696381803  7.9099792423833906  4.8927107001965995
  0.0705929235885000  6.4314089062769701  6.3232710692034306
  1.5801160630421400  7.8947314191355202  8.0683300499053505
  3.1401350793249301  9.5880448845638107  9.4680232608648307
  4.7664912020823902  1.5053246101658100  1.5504135664973702
  3.2269868608104901  9.5247757321308608  3.1470631825622406
  4.7523564812936998  1.5291062189340601  4.8004717625134203
  3.2287634517744599 -0.0072161655223800  6.3066973192227902
  4.7722529251823396  1.5169572851539501  8.0496309215801105
  3.3322501857347704  3.2466880486921803  9.5597082252705903
  1.5426785642308500  1.5638266516378800  1.6136486326738499
  4.7622829338641397  4.7021966930437502  1.6905523831745102
  3.2266034142951301  3.2519435383697100  3.1480672471926003
  4.7602381403947804  4.6138164723605106  4.7826283233492006
  4.6892293071895201  4.7610845680239304  7.8903982634565901
  3.2298875344002900  6.3977280566556303  9.5557168869534621
  4.7913957477199496  7.9917230503433698  1.5725576027594101
  3.2841692772106503  6.5058315210335707  3.1048119786915898
  4.7251393216002304  7.8912303691292411  4.8169052528000700
  3.1786671575316601  6.2792548274137205  6.2712072245766599
  4.7074042519068602  7.9367138476225199  7.9344724614302704
  6.3575777883238205 -0.0495156821262900  0.0139557918121500
  7.9414678778631300  1.5009484886173803  1.6590169626368703
  6.4539493742949299  9.5779438950834894  3.0804107066054405
  7.9108371275777403  1.5500267781921602  4.7261863521000897
  1.5035689292583301  7.9958027073922509  1.6576174210476902
  6.4982148181277397  0.1171086332265900  6.3217821586056901
  6.4464761773932295  3.2071872333477902  9.5393398251754196
  7.9185855924833701  4.7092500656605800  1.5769316237542201
  6.3120297655465798  3.1632827028187802  3.1896414999193503
  7.8996240859150504  4.7546483762525407  4.7441843729148001
  6.4261187574647103  3.2800822682241000  6.3910448588744702
  7.8461523929643304  4.7511983124114003  8.0522542266123605
  6.2675376528822309  6.3029260616372094  9.4979355263324710
  7.9546857069966910  7.8003285293049007  1.5967819509429302
  6.4929400415487901  6.3726303555647403  3.1667795517178203
  7.9709958374980205  7.9427076818974802  4.7879081603527798
  3.1715501954279701  3.1361319015237603  6.3570410968739104
  7.8328898793264896  1.6171903570365902  8.0207559476819092
  7.9675131195960596  7.8819938529432596  8.0549994592342795
