 C  H 
 1.0000000000000000
    10.5835442180599983    0.0000000000000000    0.0000000000000000
     0.0000000000000000   10.5835442180599983    0.0000000000000000
     0.0000000000000000    0.0000000000000000   10.5835442180599983
 C   H  
   6   6
Cartesian
  5.3106012900000001  6.6810797800000001  5.3251293200000003
  4.0542139400000003  6.0131560100000003  5.4033940999999999
  4.0850781999999999  4.6299963200000001  5.2430550000000000
  5.2910873499999997  3.8830182299999998  5.2319438600000003
  6.5032968699999998  4.5912012799999999  5.4224651200000000
  6.5075101799999997  5.9858509900000003  5.2648142299999998
  5.3242450699999999  7.7952359400000004  5.2454511100000003
  3.1058140800000000  6.5039128399999999  5.4173490400000004
  3.1205712399999999  4.0693992100000003  5.1664343700000002
  5.3581859700000001  2.8299174800000002  5.2210629199999996
  7.4628528500000000  3.9637759699999999  5.4828648800000002
  7.3778077199999998  6.5547212600000000  5.0773002900000002
