Mo  S 
 1.0000000000000000
     9.5642410000000009    0.0000000000000000    0.0000000000000000
    -4.7821199999999999    8.2828759999999999    0.0000000000000000
    -0.0000000000000000    0.0000000000000000   18.1582730000000012
 Mo  S  
   9  18
Cartesian
  0.3167076542203101  0.1310779207889200  8.9548111627545204
  1.3821690500436807  2.8860100220971598  9.0804887465903121
  6.1583930291615108  0.1310315366833200  9.1135282690619999
  3.2448219138009105 -0.2777862083911600  9.0620791630919904
  0.3103157300120704  5.7015457735496398  9.1522161039330712
  4.9338195799014803  2.9021280846493602  9.0722116610087209
 -1.7302940916428802  2.4719015071489201  9.0092066301015112
  3.1623098620896015  5.1746300370083196  9.0680352582187211
 -3.4211431031878501  5.7071676099771205  9.0561918878199315
  4.6810570871114106  0.9397985514990800 10.6779295841257209
  1.5676011063147401  0.9356609236220399 10.7007185799061801
 -0.0435184203352398  1.9807021945496799  7.3622358344694607
 -0.1091145656294394  3.7360405857409598 10.6475616883605202
 -1.5692661435424202  4.6343486376096008  7.8533154327906605
 -1.6115161676877197  6.3922169504463202 10.6557699540874395
 -3.0778195583024597  7.3361114669561598  7.2823991739876304
  3.1231310445775309  1.9372165157483601  7.7776638910698708
  0.0659249882148707  7.3615958056891602  7.4555147012877301
  3.2342058828660400  3.5116945821854402 10.7703831574361413
  1.7599995374171404  6.4595109280220395 10.7738519323273305
  1.5813593920770008  4.5921559157518805  7.4116270633603802
  8.0788353737674612  0.8203248571574000 10.6069528897887810
  6.2488803695532509  1.8557241977909600  7.4146872771090706
  6.4025295844317220  3.7376651062108399 10.6045385658106994
  4.7243924527773906  4.5856857471644803  7.4401371862149510
  4.7013114747854319  6.5385578096692001 10.6320472599093208
  3.2489716231020309  7.2534699827825193  7.7863464508875504
