 C  H 
 1.0000000000000000
    10.5835442180599983    0.0000000000000000    0.0000000000000000
     0.0000000000000000   10.5835442180599983    0.0000000000000000
     0.0000000000000000    0.0000000000000000   10.5835442180599983
 C   H  
   6   6
Cartesian
  5.3043972200000002  6.6935360800000003  5.1933070499999996
  4.1050033099999998  6.0123601300000002  5.2214603300000002
  4.0819031399999997  4.6415212700000001  5.2157362200000001
  5.2835280600000001  3.9135279500000002  5.2460570200000003
  6.5262652799999996  4.5636570799999996  5.2701472799999998
  6.5329360899999998  5.9807539600000004  5.2404689099999997
  5.2439868799999996  7.7363009399999996  5.4384430999999998
  3.1137051699999998  6.5318592100000004  5.3443278699999999
  3.1613353499999999  4.0631041200000002  5.3464302899999998
  5.3178129199999997  2.8163620800000002  5.3360520700000000
  7.4320801400000001  3.9981883599999999  5.3891433600000003
  7.3983128100000002  6.5500941299999997  5.2596923300000000
