Mo  S 
 1.0000000000000000
     9.5642410000000009    0.0000000000000000    0.0000000000000000
    -4.7821199999999999    8.2828759999999999    0.0000000000000000
    -0.0000000000000000    0.0000000000000000   18.1582730000000012
 Mo  S  
   9  18
Cartesian
  0.1602918074192400  0.0997614434068000  9.0442150541145914
  1.3542855124347506  2.9320837683334400  9.0166448034705002
  6.1006062666839602  0.1157050685904400  9.0797175647360007
  3.1804402229034201 -0.3209563924456400  9.0138943698591909
  0.2132270133446400  5.6660385750553202  9.1199381394310013
  5.0361281290757614  3.0124708193174001  9.1110039059495396
 -1.5384963399700298  2.4955577323199596  9.0902282994793211
  3.2528380391838705  5.2717549581555598  9.0865212880463719
 -3.3556986408712803  5.6337009847199200  9.0262690513259596
  4.5798098388752004  0.9112161686558000 10.5905180184792105
  1.6614133076284201  1.0097336897449198 10.5357098135869300
  0.0294636633437200  1.8278704595494000  7.3974812239451904
 -0.0240438957042299  3.7041043007477601 10.5893380938996700
 -1.5604338127828199  4.5233933014326002  7.9196684860736104
 -1.6713742551714499  6.4210744904303194 10.6693519791259810
 -3.2139230116460897  7.3360256563607997  7.4277034903609307
  3.1652008777456806  1.7525264376180401  7.9544274154156698
 -0.1188544330830696  7.2499207704165203  7.3898405858322498
  3.2681054322262906  3.6067595520714799 10.6569299045666810
  1.6944890784951310  6.4776058645891599 10.6550033118013801
  1.5976788610392403  4.6674296988947601  7.3631599089824302
  8.0311103844834300  0.8112387078429200 10.6711990386555406
  6.3443539679876402  1.8107985409970400  7.4755874010101202
  6.4986963547961913  3.7517732460728803 10.6832058335113302
  4.8100226854443804  4.6667622647466800  7.4118406046508607
  4.6497847917720003  6.4702605273236005 10.5864093460475015
  3.1262728434542502  7.3753861315990799  7.8174742703778000
