 C  H 
 1.0000000000000000
    10.5835442180599983    0.0000000000000000    0.0000000000000000
     0.0000000000000000   10.5835442180599983    0.0000000000000000
     0.0000000000000000    0.0000000000000000   10.5835442180599983
 C   H  
   6   6
Cartesian
  5.2734101899999999  6.7449879800000003  5.3339290100000003
  4.0639142899999996  5.9970489100000002  5.1927630499999999
  4.0517204600000003  4.6104733800000002  5.2265663599999996
  5.2426628800000001  3.8854524499999998  5.2773149899999998
  6.4942611699999997  4.5808743900000000  5.2930781199999997
  6.5399127600000000  5.9624872900000003  5.2807678700000000
  5.3338559900000000  7.8304389199999997  5.4461330999999999
  3.1029364099999999  6.4928651999999998  5.2990662899999998
  3.0872172000000000  4.0947261599999996  5.2818749100000000
  5.4601859299999997  2.7732124400000000  5.3763520900000001
  7.4236080099999997  3.9474540299999998  5.3437473700000000
  7.4275800199999997  6.5812441499999998  5.1496700400000002
