Mo 
 1.0000000000000000
     9.5479710000000004    0.0000000000000000    0.0000000000000000
     0.0000000000000000    9.5479710000000004    0.0000000000000000
     0.0000000000000000    0.0000000000000000    9.5479710000000004
 Mo 
  54
Cartesian
  9.4353286211680807  9.6358196851376707  9.5757312482839492
  9.4303558469118602  9.5786754606215094  3.2202867631206602
  1.6195177704475501  1.5902070271529101  4.6236824862745207
 -0.0641930141069100  9.5497199018480696  6.4352163506726408
  1.6399476594759601  1.6600722043917902  7.8260702410397407
 -0.0001208773128600  3.2691211020363902  0.0428041268712600
  1.7648754125935799  4.8300965385742503  1.5654816014513102
  0.0134583425230500  3.2113099517458799  3.1983657674611803
  1.5458498273187902  4.8120039928466403  4.7416327731447607
 -0.1237659560063400  3.0935611270637402  6.3630292978459808
  1.6015277699284800  4.7572540175384406  7.8872676747251100
  6.3651439824630600  6.3379543209260705  6.3834928912120201
  9.4537193500300205  6.3398751817318502  9.6043058430144903
 -0.0977644439805900  6.3168534959754901  3.2008982712892204
  1.6900365063013800  7.9693397419280707  4.7702806008128702
 -0.1148907350430000  6.3376245340077304  6.4351064535264308
  1.6196916389994602  7.9893500931107395  7.8950816387118001
  3.1413647625100198  9.6041888803697404  9.6536839388786699
  4.8261294521034603  1.5611400435579001  1.5812023357028100
  3.1136378366448603  9.4379697809061014  3.2789013751708205
  4.8207371400014996  1.5909195922286401  4.7571297984357299
  3.1335122247204898  0.0090562504935000  6.3759308027003110
  4.7573557034295906  1.5655978957380901  7.9776299587082402
  3.1369021363443301  3.2378294411983797  9.5865511999805708
  1.6391748467032201  1.6046120510006101  1.5084460328451301
  4.8797000620337405  4.8784614037559102  1.4481670184902500
  3.2297678028439503  3.0568155697108201  3.1681678267012199
  4.8534303475026004  4.8054529389841205  4.7409031172009399
  4.8269977445862002  4.7659906974425699  7.8469087832269500
  3.2180736389225699  6.3277170818995803  9.5464552596037500
  4.8699851925006605  7.9393025889997499  1.6124212410018000
  3.1888004191539601  6.3472731406220708  3.1468488306132905
  4.7796487835189403  7.9299173154255902  4.8095188469547603
  3.1040486184101401  6.4052436465485707  6.4223176147299004
  4.7897323002123295  8.0068266992291406  7.8953051567129098
  6.4193100993446102 -0.0503309833699800  0.0887882054840700
  8.0020937700044392  1.6662368518679402  1.5624678798848701
  6.3626666659074003  9.4350443780714102  3.2512331693273104
  8.0119616935126512  1.6549346321561100  4.7564481687860400
  1.5732698813960102  8.0003505014592609  1.6511651886850203
  6.3454258946727000 -0.0473995653135600  6.4463247465731701
  6.2739439595043907  3.1313254529223604  9.6624476395407299
  8.0480799491708712  4.7733697513502102  1.4733830189418302
  6.3356235657252604  3.0432670943415303  3.2490160349814001
  7.9532556119003095  4.7631456885237000  4.7596863631506903
  6.3666343252564497  3.1615960537416301  6.3547987558845600
  7.9591877662826107  4.7393214958047905  7.9454205468977106
  6.3672687879294001  6.2816676951651305  9.5556709612129502
  7.9937953419692098  7.9970483356889099  1.5395034819545101
  6.4267268677377007  6.2998530471708598  3.2195158599421201
  7.9515338262898805  7.9956787747286695  4.7162802367078802
  3.0326921435807703  3.1199742521193001  6.3633356922353705
  7.9773598466086497  1.5762569641233601  7.9265185241887206
  7.8815751744149107  7.9529877913137605  7.9974127817419802
