Mo  S 
 1.0000000000000000
     9.5642410000000009    0.0000000000000000    0.0000000000000000
    -4.7821199999999999    8.2828759999999999    0.0000000000000000
    -0.0000000000000000    0.0000000000000000   18.1582730000000012
 Mo  S  
   9  18
Cartesian
  0.1741479131568201  0.2195523718992800  9.0178528733731902
  1.3172519114291601  2.9474584427646402  9.0409941396498503
  6.0933337606833504  0.1056359903810400  9.0784904286466617
  3.2209060019489102 -0.2976360378964000  9.0862677985552889
  0.1750914249055007  5.7545422647179603  9.0677812239794502
  5.1547911302025016  2.8314567643846398  9.0833129027900004
 -1.5935721204063502  2.4459365131216400  9.0583329297893602
  3.0877989724237711  5.1637221519464003  9.0498969593190211
 -3.4343003428543701  5.7030253436895197  9.1101054346015005
  4.7451966097808809  0.9557031643367599 10.6497065435672802
  1.6341915145657404  0.9681987938991200 10.6283206375415311
 -0.0305561535209500  1.8887722932296400  7.3065919858537205
 -0.0372210246780896  3.7714256946430398 10.6673874355701095
 -1.5368596806607095  4.5171064328910795  7.8887917954989497
 -1.6180871396870498  6.3311904594822792 10.6622994874755115
 -3.0818175019050300  7.4152599794918403  7.4091855019728001
  3.1903327400095707  1.7828517032292401  7.9177616858258801
  0.0176666036117809  7.3922924754601995  7.3515447880752509
  3.1829689022589305  3.4690150757052001 10.6265730853480118
  1.7737464611170912  6.4761532966250392 10.5928617067753219
  1.5428602620223499  4.6008938529593202  7.3699440213579610
  7.9092676413154317  0.7524071790188800 10.6496985539271609
  6.4354545127156806  1.8355497623752801  7.4129163007433805
  6.5866563346241414  3.7284154529241196 10.6688197601443502
  4.8593607330830100  4.6971974441223994  7.4925143615179906
  4.6982844417428709  6.5619608273209202 10.5839229337256100
  3.2191728956809507  7.3264944681188400  7.9022390861518303
