Al 
 1.0000000000000000
     8.0780951000000005    0.0000000000000000    0.0000000000000000
     0.0000000000000000    8.0780951000000005    0.0000000000000000
     0.0000000000000000    0.0000000000000000    8.0780951000000005
 Al 
  32
Cartesian
  0.0486611523871840  0.0919732325420010  0.2307988511973450
  0.0655370200796430  2.0319705039300802  2.0868680265154151
  2.0555648425362585  0.1129943747350250  1.9785439216815042
  2.0924259982870681  1.9130125562684310  7.9526772612487830
  7.9866262637160439  8.0680467575051100  4.0541493872275485
  8.0709548717411099  2.0407677918368332  6.1529123279967619
  2.1519680216501484  7.9173106338724244  6.1117434472529260
  1.9937717771926120  2.0271822130595551  4.0735495788578060
  8.0039226770394087  4.0755333974524639  0.0279628916553070
  8.0210000124236611  6.0806373687942097  2.0306798666759533
  1.9862316832262721  4.2494495341936487  1.9133527248530922
  1.9591316936895471  6.1043088532085923  0.0096301395115630
  8.0454656543673249  3.9770639223929449  4.1310235290943353
  0.1131195852090750  5.9863972612052461  6.1193016361522901
  2.0168138972177538  4.0138165893265620  6.0000674176382214
  1.8255908456295742  6.0979285313557590  3.9281589730956430
  4.1139740631381772  7.9989977047997920  7.9724311118825195
  3.9598621035632013  1.9713281632334292  1.8525540730162560
  5.9230510205167235  8.0318386349621846  1.8907288885922282
  6.0610825624237368  1.9324688906596341  0.0408527041016220
  4.0360088129662328  7.9459108064501711  3.8989236199001844
  4.0323243937911233  1.9662384786347231  5.9240636097375079
  6.1559245688786017  7.9605092167910865  6.0462948823146281
  6.0841635380863108  1.9969797503187241  4.0819348839144594
  3.9407698489181553  4.1600992591306190  7.9666177107438045
  4.1170867147421086  6.0139543093627292  1.9034752340695671
  6.0969564941723764  3.9784208808078434  2.0217131003340021
  6.2130968830440958  6.0396613929613610  7.9817377236853275
  3.8942400211421551  4.2208715763774283  4.0679325562109723
  4.1561204741700637  6.0528047768128657  6.0624319274292411
  5.9493998279900993  4.0627583747375207  5.9780920100710340
  6.0809650971124167  6.0209047831677207  4.0264580003485522
