 C  H 
 1.0000000000000000
    10.5835442180599983    0.0000000000000000    0.0000000000000000
     0.0000000000000000   10.5835442180599983    0.0000000000000000
     0.0000000000000000    0.0000000000000000   10.5835442180599983
 C   H  
   6   6
Cartesian
  5.3067801000000001  6.6869017900000003  5.2996139900000001
  4.0787614100000003  5.9349002200000003  5.2776113300000000
  4.1142173499999997  4.5981102199999997  5.2800831099999996
  5.2704362099999997  3.8321034500000000  5.2771440600000004
  6.4906548300000004  4.6204621299999999  5.3134493200000001
  6.5070201699999997  5.9744001300000003  5.3595231999999999
  5.2160849499999999  7.7704381600000003  5.1946961399999996
  3.2352624600000000  6.5156219399999999  5.3775919500000002
  3.2060254200000000  4.1032982999999996  5.2637982100000000
  5.1893662599999999  2.7907911799999998  5.2818421000000004
  7.4223861400000004  4.0648842700000003  5.2823331800000002
  7.4642699900000000  6.6093508700000001  5.2935781899999999
