 C  H 
 1.0000000000000000
    10.5835442180599983    0.0000000000000000    0.0000000000000000
     0.0000000000000000   10.5835442180599983    0.0000000000000000
     0.0000000000000000    0.0000000000000000   10.5835442180599983
 C   H  
   6   6
Cartesian
  5.2457188700000001  6.7001417999999999  5.2929881600000002
  4.0849072800000004  5.9874940900000002  5.3316599000000000
  4.0680339300000004  4.5617462199999999  5.3048321999999999
  5.2786802599999998  3.8729310600000000  5.1979892100000002
  6.4632789099999997  4.5919770499999997  5.3010581099999996
  6.4890302599999998  6.0113441099999996  5.3227729000000004
  5.3320430200000004  7.8128141500000003  5.2366022100000000
  3.1899410800000001  6.5182149100000002  5.3189072599999996
  3.1389183500000000  4.0256611299999996  5.2850690199999999
  5.2739383100000001  2.8247103800000000  5.2989673300000000
  7.4761918200000004  4.0575350600000002  5.3265808600000000
  7.4605832100000002  6.5366948400000000  5.2838381600000002
