 C  H 
 1.0000000000000000
    10.5835442180599983    0.0000000000000000    0.0000000000000000
     0.0000000000000000   10.5835442180599983    0.0000000000000000
     0.0000000000000000    0.0000000000000000   10.5835442180599983
 C   H  
   6   6
Cartesian
  5.2767461200000003  6.6642350099999996  5.2453759700000004
  4.1085514500000002  5.9398559700000000  5.2493781400000001
  4.0662474299999998  4.5565613400000000  5.2347590899999998
  5.3146151000000001  3.8709090700000002  5.2316422300000003
  6.5073519600000003  4.6011561600000004  5.2876953300000000
  6.5493209999999999  6.0128961800000003  5.3211372099999998
  5.4350791200000002  7.7654067500000004  5.2875032400000004
  3.0355901400000000  6.4018922299999996  5.3224871399999998
  3.0965042600000001  4.0950341400000001  5.3494931699999997
  5.1798109099999996  2.8326453900000002  5.3705988800000002
  7.4079200199999997  4.1705260300000004  5.2249830700000004
  7.5235267199999996  6.5901470299999998  5.3762113300000003
