 C  H 
 1.0000000000000000
    10.5835442180599983    0.0000000000000000    0.0000000000000000
     0.0000000000000000   10.5835442180599983    0.0000000000000000
     0.0000000000000000    0.0000000000000000   10.5835442180599983
 C   H  
   6   6
Cartesian
  5.2959351500000000  6.6740798200000002  5.2371213299999999
  4.0954659500000004  5.9688929799999997  5.2639172800000003
  4.0754889800000003  4.5976170200000004  5.2582011099999999
  5.3160703399999996  3.8834002999999999  5.1963598700000002
  6.5183572600000002  4.5730430899999996  5.2649618699999996
  6.4593762200000002  5.9656120799999997  5.2698329499999996
  5.2467020900000003  7.7703640800000002  5.3097069799999996
  3.1842370799999999  6.6696458500000002  5.3493439399999998
  3.1587021599999998  4.0492089800000004  5.3676630000000003
  5.2694932200000002  2.7663622399999999  5.2749342199999996
  7.5403148699999996  4.0470832799999998  5.4058849400000000
  7.3411188100000002  6.5359550500000001  5.3033362200000003
