 C  H 
 1.0000000000000000
    10.5835442180599983    0.0000000000000000    0.0000000000000000
     0.0000000000000000   10.5835442180599983    0.0000000000000000
     0.0000000000000000    0.0000000000000000   10.5835442180599983
 C   H  
   6   6
Cartesian
  5.2858019299999999  6.6392139200000004  5.3047533600000003
  4.1025574499999999  6.0174730399999996  5.2744378500000000
  4.1364523100000001  4.6040571100000003  5.2394068499999999
  5.2980783100000002  3.9059220799999999  5.2917689299999999
  6.4931948799999999  4.5402510400000002  5.2675162100000001
  6.5021221000000002  5.9585840799999996  5.2739261400000004
  5.1899240200000003  7.7441750999999996  5.3120523000000004
  3.1637663900000002  6.5902570899999997  5.2629293099999996
  3.1670271799999998  4.0592559399999999  5.3464101900000003
  5.2863469800000003  2.8628952800000000  5.3349122199999996
  7.4473421399999999  4.0367473900000004  5.2506698600000004
  7.4286521299999997  6.5424321799999996  5.3424810400000000
