 C  H 
 1.0000000000000000
    10.5835442180599983    0.0000000000000000    0.0000000000000000
     0.0000000000000000   10.5835442180599983    0.0000000000000000
     0.0000000000000000    0.0000000000000000   10.5835442180599983
 C   H  
   6   6
Cartesian
  5.2492251999999997  6.7321437900000003  5.3037632600000002
  4.1103734000000003  6.0556970899999998  5.3112040299999999
  4.1069723800000002  4.5724959199999997  5.3739570299999997
  5.3088333099999998  3.9238500799999998  5.3178139800000004
  6.4188888799999999  4.5920559000000001  5.1930112399999997
  6.4582300300000002  6.0396370900000003  5.3010808699999998
  5.2232611200000001  7.7899409899999998  5.3165942199999998
  3.2445013700000001  6.5598907899999999  5.2270849600000000
  3.2344602299999998  3.9751744499999999  5.2398391899999996
  5.3493449999999996  2.8116751600000001  5.3432330099999996
  7.3297520799999996  4.0106483700000002  5.2583868499999999
  7.4674228300000003  6.4380540899999996  5.3152972099999998
