 C  H 
 1.0000000000000000
    10.5835442180599983    0.0000000000000000    0.0000000000000000
     0.0000000000000000   10.5835442180599983    0.0000000000000000
     0.0000000000000000    0.0000000000000000   10.5835442180599983
 C   H  
   6   6
Cartesian
  5.3490872899999999  6.6772670600000001  5.3177668799999998
  4.1427511099999998  6.0281110900000003  5.2568601700000004
  4.0876320100000001  4.5815173400000004  5.2210772099999998
  5.2864088999999996  3.9585762700000000  5.2744860100000004
  6.5339611099999999  4.5809341799999999  5.2120923100000001
  6.5444451700000004  6.0203073099999997  5.2949969100000001
  5.2146101299999996  7.7355907899999998  5.2905581799999997
  3.2008474300000000  6.5269341599999997  5.2825443200000004
  3.1127013200000002  3.9486441499999998  5.4064331699999997
  5.2141333500000000  2.8735550200000000  5.2725153499999999
  7.4286907600000003  3.9825289499999998  5.3495561399999998
  7.3859967400000004  6.5873000499999996  5.3223791900000004
