 C  H 
 1.0000000000000000
    10.5835442180599983    0.0000000000000000    0.0000000000000000
     0.0000000000000000   10.5835442180599983    0.0000000000000000
     0.0000000000000000    0.0000000000000000   10.5835442180599983
 C   H  
   6   6
Cartesian
  5.2960203400000001  6.7229001300000002  5.2485060499999996
  4.0900873899999999  6.0478292900000001  5.2766439900000002
  4.1182814299999997  4.5871213199999996  5.2317290200000004
  5.3425561899999998  3.8625131499999998  5.2120552699999996
  6.4626089699999998  4.5899593000000003  5.2511143699999998
  6.4976399699999998  6.0191410000000003  5.2018320899999999
  5.3667512300000002  7.7729628699999997  5.2455701799999996
  3.0503785300000001  6.5179492600000000  5.4012101899999996
  3.2180954300000000  4.0620722200000001  5.4079508499999998
  5.3163428699999997  2.7409670300000002  5.1849751499999996
  7.3287307699999999  4.0331230500000004  5.4961149499999999
  7.4137737799999996  6.5447251000000000  5.3435642699999999
