 C  H 
 1.0000000000000000
    10.5835442180599983    0.0000000000000000    0.0000000000000000
     0.0000000000000000   10.5835442180599983    0.0000000000000000
     0.0000000000000000    0.0000000000000000   10.5835442180599983
 C   H  
   6   6
Cartesian
  5.3631739899999999  6.6617891499999997  5.3031700600000002
  4.0933370699999996  5.9772740899999999  5.2970231300000004
  4.0678619500000002  4.5660182599999999  5.3786952899999996
  5.2837090399999997  3.9175544599999998  5.3538800499999999
  6.5034609200000002  4.6070099200000003  5.3881352800000002
  6.5410028699999998  5.9907490599999997  5.3547743600000004
  5.1795992399999999  7.7794601099999996  5.2218609200000001
  3.1618264300000001  6.6152760600000002  5.2829168600000003
  3.1240230699999998  3.9365423900000001  5.2203162499999998
  5.2160950100000001  2.8888493000000000  5.2357163699999996
  7.4948109199999999  4.0754249500000004  5.1886989699999999
  7.4723621700000002  6.4853191399999996  5.2760793599999998
