 C  H 
 1.0000000000000000
    10.5835442180599983    0.0000000000000000    0.0000000000000000
     0.0000000000000000   10.5835442180599983    0.0000000000000000
     0.0000000000000000    0.0000000000000000   10.5835442180599983
 C   H  
   6   6
Cartesian
  5.2738552299999997  6.6975927500000001  5.3041670300000003
  4.1433633700000003  6.0173370400000001  5.3405871200000004
  4.0676164100000003  4.6171330800000003  5.3684408899999996
  5.2784453100000004  3.9258471899999998  5.3623500599999998
  6.5055961499999997  4.5689012199999999  5.2998621699999999
  6.5401778799999999  6.0075620799999996  5.2053542999999998
  5.2332213000000003  7.8554420199999999  5.2900009499999996
  3.1297810400000001  6.4317129599999996  5.2423570100000001
  3.1766380999999999  4.0782549899999996  5.2779679899999996
  5.2852849300000004  2.7881521700000000  5.1759172299999996
  7.4126138299999997  3.9688222000000000  5.3460551100000000
  7.4546717700000000  6.5445070799999998  5.2882059799999999
