Mo  S 
 1.0000000000000000
     9.5642410000000009    0.0000000000000000    0.0000000000000000
    -4.7821199999999999    8.2828759999999999    0.0000000000000000
    -0.0000000000000000    0.0000000000000000   18.1582730000000012
 Mo  S  
   9  18
Cartesian
  0.2628334334736000  0.1492566800611600  8.9937878957490209
  1.3030097950769401  2.8633190004664000  9.0591012063199905
  6.2031018891492700  0.1719949140851200  9.1116574221948099
  3.2531109074852504 -0.2652281259437600  9.0295854783066805
  0.2148768901248604  5.6227442306895998  9.0686096043937106
  5.0463334993990205  2.8539005421667998  9.0871292270264092
 -1.6493944315696900  2.4974365370830398  9.0675758539118210
  3.1734623949609704  5.2771671549914805  9.1113977588909112
 -3.4256792319586600  5.6980675454309599  9.0525504277525108
  4.6655908026213506  0.9697798292700001 10.6128437967154419
  1.6044586315883502  0.9525038206530000 10.6342892618766296
 -0.0698398872270298  1.8786087902338400  7.4146865507781508
 -0.1763608897025699  3.7006144766026803 10.6465833206112812
 -1.6308167709254697  4.5970963199708397  7.7589819334765506
 -1.5798218538161493  6.3474452723172394 10.6154153713377006
 -3.1465323175880897  7.3344600271392801  7.4070658867655101
  3.2475857804952311  1.9717394600875999  7.9212271922279305
  0.1250342879377907  7.2775259395493199  7.5015319414725203
  3.1648952183428003  3.5645197006493201 10.6389118134342411
  1.6485002836536502  6.4316413694873198 10.6552232084874099
  1.6055509462561701  4.6269405989727197  7.4339521152656909
  8.0213212859812799  0.7748563406704401 10.5965765262656593
  6.2944884510171306  1.7564965857423600  7.3851348693843004
  6.5108956899534611  3.7898439118604399 10.6324685318429211
  4.7715634824750008  4.6155171877085603  7.4808810823378105
  4.7138433086706915  6.5416685265797598 10.6517028641009013
  3.1631395481334907  7.3546955073510798  7.8284293380614303
