 C  H 
 1.0000000000000000
    10.5835442180599983    0.0000000000000000    0.0000000000000000
     0.0000000000000000   10.5835442180599983    0.0000000000000000
     0.0000000000000000    0.0000000000000000   10.5835442180599983
 C   H  
   6   6
Cartesian
  5.2412769600000004  6.7001888999999997  5.3137451300000000
  4.1133489699999997  5.9857541500000000  5.3161370200000002
  4.0670634200000002  4.6026531999999998  5.2470873300000003
  5.3210493699999999  3.9648009800000001  5.2575279899999998
  6.5160341700000002  4.6337069099999999  5.3455190500000000
  6.5568628400000000  5.9935198300000003  5.2647988899999998
  5.2077138999999999  7.7364729299999997  5.3240879000000003
  3.1398221799999999  6.5940211299999998  5.3465620600000001
  3.1579041700000001  3.9585132999999999  5.2500819400000003
  5.3377110400000003  2.9227600400000000  5.2661943300000003
  7.3679941299999996  3.9759063000000001  5.4190080099999998
  7.4744841700000002  6.4329681599999997  5.1505161900000003
